  Job Started  at 14:50.35 22nd February   2017

  Number of CPUs =     1

  Total number of configurations input =   1

*  Input for Configuration =   1                                               *

  Formula = K2Mn2F6

  Number of irreducible atoms/shells =       6

  Total number atoms/shells =      16

  Dimensionality = 3               :  Bulk

  Symmetry :

  Crystal family                   :  Tetragonal
  Crystal class  (Groth - 1921)    :  Ditetragonal Dipyramidal

  Space group (centrosymmetric)    :  I 4/M C M

  Patterson group                  :  I 4/m m m

  Cartesian lattice vectors (Angstroms) :

       -2.100000    2.100000    2.100000
        2.100000   -2.100000    2.100000
        2.100000    2.100000   -2.100000

  Primitive cell parameters :            Full cell parameters :

  a =   3.6373    alpha = 109.4712       a =   4.2000    alpha =  90.0000
  b =   3.6373    beta  = 109.4712       b =   4.2000    beta  =  90.0000
  c =   3.6373    gamma = 109.4712       c =   4.2000    gamma =  90.0000

  Initial volumes (Angstroms**3):

  Primitive cell =          37.044000    Full cell =          74.088000

  Temperature of configuration =  0.000     K

  Pressure of configuration =         0.000 GPa

  Fractional coordinates of asymmetric unit :

   No.  Atomic       x           y          z         Charge      Occupancy
        Label      (Frac)      (Frac)     (Frac)        (e)         (Frac)
      1 K     c    0.000000    0.500000    0.250000     0.90000    1.000000
      2 Mn    c    0.000000    0.000000    0.000000     1.50000    1.000000
      3 F     c    0.240600 *  0.740600    0.000000     0.37800    1.000000
      4 F     c    0.000000    0.000000    0.250000     0.37800    1.000000
      5 F     s    0.240600 *  0.740600    0.000000    -1.17800    1.000000
      6 F     s    0.000000    0.000000    0.250000    -1.17800    1.000000

  Constraints :

  Constraint no.      Unconstrained     Constrained    Coefficient    Offset
                         Variable         Variable
           1              Strain 1        Strain 2       1.00000      0.0000
           2                 3 x             3 y         1.00000      0.5000
           3                 5 x             5 y         1.00000      0.5000

*  General input information                                                   *

  Species output for all configurations :

  Species    Type    Atomic    Atomic    Charge       Radii (Angs)     Library
                     Number     Mass       (e)     Cova   Ionic  VDW   Symbol
    K        Core       19      39.10   0.900000   1.330  0.000  2.800
    Mn       Core       25      54.94   1.500000   1.350  0.000  2.010
    F        Core        9      19.00   0.378000   0.710  0.000  1.300
    F        Shell       9       0.00  -1.178000   0.710  0.000  1.300

  Lattice summation method               =    Ewald          (3-D)
                                         =    Parry          (2-D)
                                         =    Saunders et al (1-D)
  Accuracy factor for lattice sums       =   12.000

  Time limit = Infinity

  Maximum range for interatomic potentials =    100000.000000 Angstroms

  General interatomic potentials :

Atom  Types   Potential         A         B         C         D     Cutoffs(Ang)
  1     2                                                            Min    Max
K    c K    c Buckingham    0.219E+04 0.192      0.00      0.00     0.000 10.000
Mn   c F    s Buckingham    0.148E+04 0.266      0.00      0.00     0.000 10.000
F    s F    s Buckingham     912.     0.271      20.0      0.00     0.000 10.000
K    c F    s Buckingham    0.352E+04 0.267      0.00      0.00     0.000 10.000
F    c F    s Spring (c-s)   17.8      0.00      0.00      0.00     0.000  0.800

*  Output for configuration   1                                                *

  Components of energy :

  Interatomic potentials     =         246.60489277 eV
  Monopole - monopole (real) =         -31.87244548 eV
  Monopole - monopole (recip)=         -53.83990058 eV
  Monopole - monopole (total)=         -85.71234606 eV
  Total lattice energy :
    Primitive unit cell      =         160.89254671 eV
    Non-primitive unit cell  =         321.78509342 eV
  Total lattice energy (in kJmol-1):
    Primitive unit cell      =           15523.6713 kJ/(mole unit cells)
    Non-primitive unit cell  =           31047.3426 kJ/(mole unit cells)

  Number of variables =        4

  Maximum number of calculations  =          1000
  Maximum Hessian update interval =            10
  Maximum step size               =   1.000000000
  Maximum parameter tolerance     =   0.000010000
  Maximum function  tolerance     =   0.000010000
  Maximum gradient  tolerance     =   0.001000000
  Maximum gradient  component     =   0.010000000

  Symmetry constrained optimisation

  Symmetry used for second derivatives

  Cell parameters to be optimised using strains

  Newton-Raphson optimiser to be used

  BFGS hessian update to be used

  Start of bulk optimisation :

  ** Hessian calculated **
  ** Hessian calculated **
  ** Hessian calculated **
  ** Hessian calculated **
  ** Hessian calculated **
  ** Hessian calculated **
  ** Hessian calculated **

  **** Conditions for a minimum have not been satisfied. However ****
  **** no lower point can be found - treat results with caution  ****
  **** unless gradient norm is small (less than 0.1)             ****

  Final energy =     -45.26457563 eV
  Final Gnorm  =       0.01970337

  Components of energy :

  Interatomic potentials     =           5.58605411 eV
  Monopole - monopole (real) =          -6.08642469 eV
  Monopole - monopole (recip)=         -44.76420505 eV
  Monopole - monopole (total)=         -50.85062974 eV
  Total lattice energy :
    Primitive unit cell      =         -45.26457563 eV
    Non-primitive unit cell  =         -90.52915127 eV
  Total lattice energy (in kJmol-1):
    Primitive unit cell      =           -4367.3396 kJ/(mole unit cells)
    Non-primitive unit cell  =           -8734.6792 kJ/(mole unit cells)

  Final asymmetric unit coordinates :

   No.  Atomic        x           y           z         Radius
        Label       (Frac)      (Frac)      (Frac)       (Angs)
     1  K     c     0.000000    0.500000    0.250000    0.000000
     2  Mn    c     0.000000    0.000000    0.000000    0.000000
     3  F     c     0.229971    0.729971    0.000000    0.000000
     4  F     c     0.000000    0.000000    0.250000    0.000000
     5  F     s     0.230265    0.730265    0.000000    0.000000
     6  F     s     0.000000    0.000000    0.250000    0.000000

  Final Cartesian lattice vectors (Angstroms) :

       -3.063035    3.063035    4.347398
        3.063035   -3.063035    4.347398
        3.063035    3.063035   -4.347398

  Final cell parameters and derivatives :

       a            6.137119 Angstrom     dE/de1(xx)    -0.043582 eV/strain
       b            6.137119 Angstrom     dE/de2(yy)     0.000000 eV/strain
       c            6.137119 Angstrom     dE/de3(zz)    -0.017131 eV/strain
       alpha      120.119083 Degrees      dE/de4(yz)     0.000000 eV/strain
       beta       120.119083 Degrees      dE/de5(xz)     0.000000 eV/strain
       gamma       89.793865 Degrees      dE/de6(xy)     0.000000 eV/strain

  Primitive cell volume =           163.152329 Angs**3

  Density of cell =      3.074572 g/cm**3

  Non-primitive lattice parameters :

  a    =     6.126070  b   =     6.126070  c    =     8.694796
  alpha=    90.000000  beta=    90.000000  gamma=    90.000000

  Non-primitive cell volume =           326.304659 Angs**3

  Final internal derivatives :

   No.  Atomic          a             b             c           Radius
        Label          (eV)          (eV)          (eV)        (eV/Angs)
      1 K     c       0.000000      0.000000      0.000000      0.000000
      2 Mn    c       0.000000      0.000000      0.000000      0.000000
      3 F     c       0.057986      0.000000      0.000000      0.000000
      4 F     c       0.000000      0.000000      0.000000      0.000000
      5 F     s      -0.025617      0.000000      0.000000      0.000000
      6 F     s       0.000000      0.000000      0.000000      0.000000
  Maximum abs         0.057986      0.000000      0.000000      0.000000

  Born effective charge tensors :

  Atom             x           y             z
   1 K     x       0.9374      0.0000      0.0000
           y       0.0000      0.9374      0.0000
           z       0.0000      0.0000      0.9320
   2 Mn    x       1.1708     -0.0001      0.0000
           y       0.0001      1.1708      0.0000
           z       0.0000      0.0000      1.1708
   3 F     x      -0.6932     -0.0257      0.0000
           y      -0.0257     -0.6932      0.0000
           z       0.0000      0.0000     -0.7174
   4 F     x      -0.7217      0.0000      0.0000
           y       0.0000     -0.7217      0.0000
           z       0.0000      0.0000     -0.6680

  Elastic Constant Matrix: (Units=GPa)

  Indices      1         2         3         4         5         6
       1     64.3263   28.0281   22.6057    0.0000    0.0000    0.0000
       2     28.0281   64.3263   22.6057    0.0000    0.0000    0.0000
       3     22.6057   22.6057   77.8843    0.0000    0.0000    0.0000
       4      0.0000    0.0000    0.0000    8.5026    0.0000    0.0000
       5      0.0000    0.0000    0.0000    0.0000    8.5026    0.0000
       6      0.0000    0.0000    0.0000    0.0000    0.0000   29.6589

  Elastic Compliance Matrix: (Units=1/GPa)

  Indices      1         2         3         4         5         6
       1    0.020085 -0.007464 -0.003663  0.000000  0.000000  0.000000
       2   -0.007464  0.020085 -0.003663  0.000000  0.000000  0.000000
       3   -0.003663 -0.003663  0.014966  0.000000  0.000000  0.000000
       4    0.000000  0.000000  0.000000  0.117612  0.000000  0.000000
       5    0.000000  0.000000  0.000000  0.000000  0.117612  0.000000
       6    0.000000  0.000000  0.000000  0.000000  0.000000  0.033717

  Mechanical properties :

  Convention :                    Reuss         Voigt         Hill
  Bulk  Modulus (GPa)     =      39.13070      39.22397      39.17734
  Shear Modulus (GPa)     =      13.80542      18.21930      16.01236
  Velocity S-wave (km/s)  =       2.11901       2.43430       2.28210
  Velocity P-wave (km/s)  =       4.32598       4.54517       4.43693
  Compressibility (1/GPa) =    0.02555538
  Stress axis :                     x             y             z
  Youngs Moduli (GPa)     =      49.78755      49.78755      66.81786
  Poissons Ratio (x)      =                     0.37162       0.24477
  Poissons Ratio (y)      =       0.37162                     0.24477
  Poissons Ratio (z)      =       0.18238       0.18238

  Piezoelectric Strain Matrix: (Units=C/m**2)

  Indices      1         2         3         4         5         6
       x     0.00000   0.00000   0.00000   0.00000   0.00000   0.00000
       y     0.00000   0.00000   0.00000   0.00000   0.00000   0.00000
       z     0.00000   0.00000   0.00000   0.00000   0.00000   0.00000

  Piezoelectric Stress Matrix: (Units=10**-11 C/N)

  Indices      1         2         3         4         5         6
       x     0.00000   0.00000   0.00000   0.00000   0.00000   0.00000
       y     0.00000   0.00000   0.00000   0.00000   0.00000   0.00000
       z     0.00000   0.00000   0.00000   0.00000   0.00000   0.00000

  Static dielectric constant tensor :

              x         y         z
       x     5.75313   0.00000   0.00000
       y     0.00000   5.75313   0.00000
       z     0.00000   0.00000   5.18638

  High frequency dielectric constant tensor :

              x         y         z
       x     1.50437   0.00000   0.00000
       y     0.00000   1.50437   0.00000
       z     0.00000   0.00000   1.50319

  Static refractive indices :

    1 =    2.27736      2 =    2.39857      3 =    2.39857

  High frequency refractive indices :

    1 =    1.22605      2 =    1.22653      3 =    1.22653

  Time to end of optimisation =       0.4908 seconds

  Timing analysis for GULP :

  Task / Subroutine                                          Time (Seconds)
  Calculation of reciprocal space energy and derivatives          0.0041
  Calculation of reciprocal space energy using symmetry           0.0197
  Calculation of real space energy and derivatives                0.0065
  Calculation of real space energy using symmetry                 0.4545
  Symmetry generation of equivalent positions                     0.0008
  Global summation overhead                                       0.0001

  CIF file written as perov.cif

  Job Finished at 14:50.35 22nd February   2017