  Job Started  at 14:50.40 22nd February   2017

  Number of CPUs =     1

  Total number of configurations input =   1

*  Input for Configuration =   1                                               *

  Formula = K2Mn2F6

  Number of irreducible atoms/shells =       6

  Total number atoms/shells =      16

  Dimensionality = 3               :  Bulk

  Symmetry :

  Crystal family                   :  Tetragonal
  Crystal class  (Groth - 1921)    :  Ditetragonal Dipyramidal

  Space group (centrosymmetric)    :  I 4/M C M

  Patterson group                  :  I 4/m m m

  Cartesian lattice vectors (Angstroms) :

       -2.100000    2.100000    2.100000
        2.100000   -2.100000    2.100000
        2.100000    2.100000   -2.100000

  Primitive cell parameters :            Full cell parameters :

  a =   3.6373    alpha = 109.4712       a =   4.2000    alpha =  90.0000
  b =   3.6373    beta  = 109.4712       b =   4.2000    beta  =  90.0000
  c =   3.6373    gamma = 109.4712       c =   4.2000    gamma =  90.0000

  Initial volumes (Angstroms**3):

  Primitive cell =          37.044000    Full cell =          74.088000

  Temperature of configuration =  0.000     K

  Pressure of configuration =         0.000 GPa

  Fractional coordinates of asymmetric unit :

   No.  Atomic       x           y          z         Charge      Occupancy
        Label      (Frac)      (Frac)     (Frac)        (e)         (Frac)
      1 K     c    0.000000    0.500000    0.250000     1.30000    1.000000
      2 Mn    c    0.000000    0.000000    0.000000     1.50000    1.000000
      3 F     c    0.240600 *  0.740600    0.000000     0.37800    1.000000
      4 F     c    0.000000    0.000000    0.250000     0.37800    1.000000
      5 F     s    0.240600 *  0.740600    0.000000    -1.31133    1.000000
      6 F     s    0.000000    0.000000    0.250000    -1.31133    1.000000

  Constraints :

  Constraint no.      Unconstrained     Constrained    Coefficient    Offset
                         Variable         Variable
           1              Strain 1        Strain 2       1.00000      0.0000
           2                 3 x             3 y         1.00000      0.5000
           3                 5 x             5 y         1.00000      0.5000

*  General input information                                                   *

  Species output for all configurations :

  Species    Type    Atomic    Atomic    Charge       Radii (Angs)     Library
                     Number     Mass       (e)     Cova   Ionic  VDW   Symbol
    K        Core       19      39.10   1.300000   1.330  0.000  2.800
    Mn       Core       25      54.94   1.500000   1.350  0.000  2.010
    F        Core        9      19.00   0.378000   0.710  0.000  1.300
    F        Shell       9       0.00  -1.311333   0.710  0.000  1.300

  Lattice summation method               =    Ewald          (3-D)
                                         =    Parry          (2-D)
                                         =    Saunders et al (1-D)
  Accuracy factor for lattice sums       =   12.000

  Time limit = Infinity

  Maximum range for interatomic potentials =    100000.000000 Angstroms

  General interatomic potentials :

Atom  Types   Potential         A         B         C         D     Cutoffs(Ang)
  1     2                                                            Min    Max
K    c K    c Buckingham    0.219E+04 0.192      0.00      0.00     0.000 10.000
Mn   c F    s Buckingham    0.148E+04 0.266      0.00      0.00     0.000 10.000
F    s F    s Buckingham     912.     0.271      20.0      0.00     0.000 10.000
K    c F    s Buckingham    0.352E+04 0.267      0.00      0.00     0.000 10.000
F    c F    s Spring (c-s)   22.0      0.00      0.00      0.00     0.000  0.800

*  Output for configuration   1                                                *

  Components of energy :

  Interatomic potentials     =         246.60489277 eV
  Monopole - monopole (real) =         -39.13812997 eV
  Monopole - monopole (recip)=         -70.48248882 eV
  Monopole - monopole (total)=        -109.62061879 eV
  Total lattice energy :
    Primitive unit cell      =         136.98427398 eV
    Non-primitive unit cell  =         273.96854796 eV
  Total lattice energy (in kJmol-1):
    Primitive unit cell      =           13216.8884 kJ/(mole unit cells)
    Non-primitive unit cell  =           26433.7769 kJ/(mole unit cells)

  Number of variables =        4

  Maximum number of calculations  =          1000
  Maximum Hessian update interval =            10
  Maximum step size               =   1.000000000
  Maximum parameter tolerance     =   0.000010000
  Maximum function  tolerance     =   0.000010000
  Maximum gradient  tolerance     =   0.001000000
  Maximum gradient  component     =   0.010000000

  Symmetry constrained optimisation

  Symmetry used for second derivatives

  Cell parameters to be optimised using strains

  Newton-Raphson optimiser to be used

  BFGS hessian update to be used

  Start of bulk optimisation :

  ** Hessian calculated **
  ** Hessian calculated **
  ** Hessian calculated **

  **** Optimisation achieved ****

  Final energy =     -60.32275632 eV
  Final Gnorm  =       0.00039369

  Components of energy :

  Interatomic potentials     =           7.56650945 eV
  Monopole - monopole (real) =          -9.32163059 eV
  Monopole - monopole (recip)=         -58.56763518 eV
  Monopole - monopole (total)=         -67.88926577 eV
  Total lattice energy :
    Primitive unit cell      =         -60.32275632 eV
    Non-primitive unit cell  =        -120.64551264 eV
  Total lattice energy (in kJmol-1):
    Primitive unit cell      =           -5820.2239 kJ/(mole unit cells)
    Non-primitive unit cell  =          -11640.4477 kJ/(mole unit cells)

  Final asymmetric unit coordinates :

   No.  Atomic        x           y           z         Radius
        Label       (Frac)      (Frac)      (Frac)       (Angs)
     1  K     c     0.000000    0.500000    0.250000    0.000000
     2  Mn    c     0.000000    0.000000    0.000000    0.000000
     3  F     c     0.310199    0.810199    0.000000    0.000000
     4  F     c     0.000000    0.000000    0.250000    0.000000
     5  F     s     0.309848    0.809848    0.000000    0.000000
     6  F     s     0.000000    0.000000    0.250000    0.000000

  Final Cartesian lattice vectors (Angstroms) :

       -2.932793    2.932793    4.238476
        2.932793   -2.932793    4.238476
        2.932793    2.932793   -4.238476

  Final cell parameters and derivatives :

       a            5.930196 Angstrom     dE/de1(xx)    -0.000392 eV/strain
       b            5.930196 Angstrom     dE/de2(yy)     0.000000 eV/strain
       c            5.930196 Angstrom     dE/de3(zz)     0.000984 eV/strain
       alpha      120.719520 Degrees      dE/de4(yz)     0.000000 eV/strain
       beta       120.719520 Degrees      dE/de5(xz)     0.000000 eV/strain
       gamma       88.758209 Degrees      dE/de6(xy)     0.000000 eV/strain

  Primitive cell volume =           145.825194 Angs**3

  Density of cell =      3.439897 g/cm**3

  Non-primitive lattice parameters :

  a    =     5.865586  b   =     5.865586  c    =     8.476953
  alpha=    90.000000  beta=    90.000000  gamma=    90.000000

  Non-primitive cell volume =           291.650388 Angs**3

  Final internal derivatives :

   No.  Atomic          a             b             c           Radius
        Label          (eV)          (eV)          (eV)        (eV/Angs)
      1 K     c       0.000000      0.000000      0.000000      0.000000
      2 Mn    c       0.000000      0.000000      0.000000      0.000000
      3 F     c      -0.001165      0.000000      0.000000      0.000000
      4 F     c       0.000000      0.000000      0.000000      0.000000
      5 F     s      -0.000034      0.000000      0.000000      0.000000
      6 F     s       0.000000      0.000000      0.000000      0.000000
  Maximum abs         0.001165      0.000000      0.000000      0.000000

  Born effective charge tensors :

  Atom             x           y             z
   1 K     x       1.3474      0.0000      0.0000
           y       0.0000      1.3474      0.0000
           z       0.0000      0.0000      1.2864
   2 Mn    x       1.1790     -0.0006      0.0000
           y       0.0006      1.1790      0.0000
           z       0.0000      0.0000      1.1389
   3 F     x      -0.8196     -0.0307      0.0000
           y      -0.0307     -0.8196      0.0000
           z       0.0000      0.0000     -0.8350
   4 F     x      -0.8873      0.0000      0.0000
           y       0.0000     -0.8873      0.0000
           z       0.0000      0.0000     -0.7553

  Elastic Constant Matrix: (Units=GPa)

  Indices      1         2         3         4         5         6
       1     84.1584   41.7690   35.6263    0.0000    0.0000    0.0000
       2     41.7690   84.1584   35.6263    0.0000    0.0000    0.0000
       3     35.6263   35.6263  125.4650    0.0000    0.0000    0.0000
       4      0.0000    0.0000    0.0000   27.4881    0.0000    0.0000
       5      0.0000    0.0000    0.0000    0.0000   27.4881    0.0000
       6      0.0000    0.0000    0.0000    0.0000    0.0000   32.0692

  Elastic Compliance Matrix: (Units=1/GPa)

  Indices      1         2         3         4         5         6
       1    0.016526 -0.007065 -0.002687  0.000000  0.000000  0.000000
       2   -0.007065  0.016526 -0.002687  0.000000  0.000000  0.000000
       3   -0.002687 -0.002687  0.009496  0.000000  0.000000  0.000000
       4    0.000000  0.000000  0.000000  0.036379  0.000000  0.000000
       5    0.000000  0.000000  0.000000  0.000000  0.036379  0.000000
       6    0.000000  0.000000  0.000000  0.000000  0.000000  0.031183

  Mechanical properties :

  Convention :                    Reuss         Voigt         Hill
  Bulk  Modulus (GPa)     =      56.58586      57.75836      57.17211
  Shear Modulus (GPa)     =      28.20780      29.45975      28.83378
  Velocity S-wave (km/s)  =       2.86360       2.92645       2.89520
  Velocity P-wave (km/s)  =       5.23292       5.31127       5.27224
  Compressibility (1/GPa) =    0.01767226
  Stress axis :                     x             y             z
  Youngs Moduli (GPa)     =      60.51073      60.51073     105.30682
  Poissons Ratio (x)      =                     0.42750       0.28291
  Poissons Ratio (y)      =       0.42750                     0.28291
  Poissons Ratio (z)      =       0.16256       0.16256

  Piezoelectric Strain Matrix: (Units=C/m**2)

  Indices      1         2         3         4         5         6
       x     0.00000   0.00000   0.00000   0.00000   0.00000   0.00000
       y     0.00000   0.00000   0.00000   0.00000   0.00000   0.00000
       z     0.00000   0.00000   0.00000   0.00000   0.00000   0.00000

  Piezoelectric Stress Matrix: (Units=10**-11 C/N)

  Indices      1         2         3         4         5         6
       x     0.00000   0.00000   0.00000   0.00000   0.00000   0.00000
       y     0.00000   0.00000   0.00000   0.00000   0.00000   0.00000
       z     0.00000   0.00000   0.00000   0.00000   0.00000   0.00000

  Static dielectric constant tensor :

              x         y         z
       x     9.03711   0.00000   0.00000
       y     0.00000   9.03711   0.00000
       z     0.00000   0.00000   3.93906

  High frequency dielectric constant tensor :

              x         y         z
       x     1.57345   0.00000   0.00000
       y     0.00000   1.57345   0.00000
       z     0.00000   0.00000   1.55391

  Static refractive indices :

    1 =    1.98471      2 =    3.00618      3 =    3.00618

  High frequency refractive indices :

    1 =    1.24656      2 =    1.25437      3 =    1.25437

  Time to end of optimisation =       0.1518 seconds

  Timing analysis for GULP :

  Task / Subroutine                                          Time (Seconds)
  Calculation of reciprocal space energy and derivatives          0.0017
  Calculation of reciprocal space energy using symmetry           0.0056
  Calculation of real space energy and derivatives                0.0078
  Calculation of real space energy using symmetry                 0.1311
  Symmetry generation of equivalent positions                     0.0007

  CIF file written as perov.cif

  Job Finished at 14:50.40 22nd February   2017