  Job Started  at 09:30.26  6th April      2017

  Number of CPUs =     1

  Total number of configurations input =   1

*  Input for Configuration =   1                                               *

  Formula = Tb2Ba2O6

  Number of irreducible atoms/shells =       4

  Total number atoms/shells =      16

  Dimensionality = 3               :  Bulk

  Symmetry :

  Crystal family                   :  Hexagonal
  Crystal class  (Groth - 1921)    :  Ditrigonal Scalenohedral

  Space group (centrosymmetric)    :  R -3 C

  Patterson group                  :  R -3 m

  Cartesian lattice vectors (Angstroms) :

        3.039900    1.755087    4.922700
       -3.039900    1.755087    4.922700
        0.000000   -3.510174    4.922700

  Primitive cell parameters :            Full cell parameters :

  a =   6.0460    alpha =  60.3700       a =   6.0798    alpha =  90.0000
  b =   6.0460    beta  =  60.3700       b =   6.0798    beta  =  90.0000
  c =   6.0460    gamma =  60.3700       c =  14.7681    gamma = 120.0000

  Initial volumes (Angstroms**3):

  Primitive cell =         157.584170    Full cell =         472.752509

  Temperature of configuration =  0.000     K

  Pressure of configuration =         0.000 GPa

  Fractional coordinates of asymmetric unit :

   No.  Atomic       x           y          z         Charge      Occupancy
        Label      (Frac)      (Frac)     (Frac)        (e)         (Frac)
      1 Tb    c    0.000000    0.000000    0.000000     0.50000    1.000000
      2 Ba    c    0.000000    0.000000    0.250000     2.10000    1.000000
      3 O     c    0.462400    0.000000    0.250000     0.37800    1.000000
      4 O     s    0.462400    0.000000    0.250000    -1.24467    1.000000

  Constraints :

  Constraint no.      Unconstrained     Constrained    Coefficient    Offset
                         Variable         Variable
           1              Strain 1        Strain 2       1.00000      0.0000

*  General input information                                                   *

  Species output for all configurations :

  Species    Type    Atomic    Atomic    Charge       Radii (Angs)     Library
                     Number     Mass       (e)     Cova   Ionic  VDW   Symbol
    Tb       Core       65     158.93   0.500000   1.760  0.000  2.630
    Ba       Core       56     137.33   2.100000   1.340  0.000  2.000
    O        Core        8      16.00   0.378000   0.730  0.000  1.360
    O        Shell       8       0.00  -1.244667   0.730  0.000  1.360

  Lattice summation method               =    Ewald          (3-D)
                                         =    Parry          (2-D)
                                         =    Saunders et al (1-D)
  Accuracy factor for lattice sums       =   12.000

  Time limit = Infinity

  Maximum range for interatomic potentials =    100000.000000 Angstroms

  General interatomic potentials :

Atom  Types   Potential         A         B         C         D     Cutoffs(Ang)
  1     2                                                            Min    Max
Ba   c Ba   c Buckingham    0.219E+04 0.192      0.00      0.00     0.000 30.000
Tb   c O    s Buckingham    0.148E+04 0.266      0.00      0.00     0.000 30.000
O    s O    s Buckingham     912.     0.271      13.8      0.00     0.000 30.000
Ba   c O    s Buckingham    0.352E+04 0.267      0.00      0.00     0.000 30.000
O    c O    s Spring (c-s)   19.9      0.00      0.00      0.00     0.000  0.800

*  Output for configuration   1                                                *

  Components of energy :

  Interatomic potentials     =           6.37890675 eV
  Monopole - monopole (real) =         -13.91530842 eV
  Monopole - monopole (recip)=         -44.67590364 eV
  Monopole - monopole (total)=         -58.59121206 eV
  Total lattice energy :
    Primitive unit cell      =         -52.21230531 eV
    Non-primitive unit cell  =        -156.63691592 eV
  Total lattice energy (in kJmol-1):
    Primitive unit cell      =           -5037.6893 kJ/(mole unit cells)
    Non-primitive unit cell  =          -15113.0680 kJ/(mole unit cells)

  Number of variables =        2

  Maximum number of calculations  =          1000
  Maximum Hessian update interval =            10
  Maximum step size               =   1.000000000
  Maximum parameter tolerance     =   0.000010000
  Maximum function  tolerance     =   0.000010000
  Maximum gradient  tolerance     =   0.001000000
  Maximum gradient  component     =   0.010000000

  Symmetry constrained optimisation

  Symmetry used for second derivatives

  Cell parameters to be optimised using strains

  Newton-Raphson optimiser to be used

  BFGS hessian update to be used

  Start of bulk optimisation :

  ** Hessian calculated **
  ** Hessian calculated **
  ** Hessian calculated **
  ** Hessian calculated **
  ** Hessian calculated **
  ** Hessian calculated **
  ** Hessian calculated **
  ** Hessian calculated **
  ** Hessian calculated **
  ** Hessian calculated **
  ** Hessian calculated **

  **** Optimisation achieved ****

  Final energy =     -53.15786139 eV
  Final Gnorm  =       0.00067056

  Components of energy :

  Interatomic potentials     =           6.26308474 eV
  Monopole - monopole (real) =         -15.35243071 eV
  Monopole - monopole (recip)=         -44.06851543 eV
  Monopole - monopole (total)=         -59.42094613 eV
  Total lattice energy :
    Primitive unit cell      =         -53.15786139 eV
    Non-primitive unit cell  =        -159.47358418 eV
  Total lattice energy (in kJmol-1):
    Primitive unit cell      =           -5128.9210 kJ/(mole unit cells)
    Non-primitive unit cell  =          -15386.7631 kJ/(mole unit cells)

  Final asymmetric unit coordinates :

   No.  Atomic        x           y           z         Radius
        Label       (Frac)      (Frac)      (Frac)       (Angs)
     1  Tb    c     0.000000    0.000000    0.000000    0.000000
     2  Ba    c     0.000000    0.000000    0.250000    0.000000
     3  O     c     0.462400    0.000000    0.250000    0.000000
     4  O     s     0.462400    0.000000    0.250000    0.000000

  Final Cartesian lattice vectors (Angstroms) :

        2.535414    1.463822    7.645505
       -2.535414    1.463822    7.645505
        0.000000   -2.927643    7.645505

  Final cell parameters and derivatives :

       a            8.186870 Angstrom     dE/de1(xx)     0.000666 eV/strain
       b            8.186870 Angstrom     dE/de2(yy)     0.000000 eV/strain
       c            8.186870 Angstrom     dE/de3(zz)     0.001164 eV/strain
       alpha       36.081419 Degrees      dE/de4(yz)     0.000000 eV/strain
       beta        36.081419 Degrees      dE/de5(xz)     0.000000 eV/strain
       gamma       36.081419 Degrees      dE/de6(xy)     0.000000 eV/strain

  Primitive cell volume =           170.252869 Angs**3

  Density of cell =      6.715496 g/cm**3

  Non-primitive lattice parameters :

  a    =     5.070827  b   =     5.070827  c    =    22.936515
  alpha=    90.000000  beta=    90.000000  gamma=   120.000000

  Non-primitive cell volume =           510.758606 Angs**3

  Final internal derivatives :

   No.  Atomic          a             b             c           Radius
        Label          (eV)          (eV)          (eV)        (eV/Angs)
      1 Tb    c       0.000000      0.000000      0.000000      0.000000
      2 Ba    c       0.000000      0.000000      0.000000      0.000000
      3 O     c       0.000000      0.000000      0.000000      0.000000
      4 O     s       0.000000      0.000000      0.000000      0.000000
  Maximum abs         0.000000      0.000000      0.000000      0.000000

  Born effective charge tensors :

  Atom             x           y             z
   1 Tb    x       0.4089     -0.0010      0.0000
           y       0.0010      0.4089      0.0000
           z       0.0000      0.0000      0.2665
   2 Ba    x       2.0123      0.0000      0.0000
           y       0.0000      2.0123      0.0000
           z       0.0000      0.0000      1.9533
   3 O     x      -0.8662      0.0000      0.0000
           y       0.0000     -0.7479      0.0963
           z       0.0000      0.0481     -0.7399

  Elastic Constant Matrix: (Units=GPa)

  Indices      1         2         3         4         5         6
       1   -116.3059 -141.8015   31.9869   -2.1301    0.0000    0.0000
       2   -141.8015 -116.3059   31.9869    2.1301    0.0000    0.0000
       3     31.9869   31.9869   30.8747    0.0000    0.0000    0.0000
       4     -2.1301    2.1301    0.0000   23.2859    0.0000    0.0000
       5      0.0000    0.0000    0.0000    0.0000   23.2859   -2.1301
       6      0.0000    0.0000    0.0000    0.0000   -2.1301   12.7478

  Elastic Compliance Matrix: (Units=1/GPa)

  Indices      1         2         3         4         5         6
       1    0.018374 -0.021457  0.003194  0.003644  0.000000  0.000000
       2   -0.021457  0.018374  0.003194 -0.003644  0.000000  0.000000
       3    0.003194  0.003194  0.025771  0.000000  0.000000  0.000000
       4    0.003644 -0.003644  0.000000  0.043611  0.000000  0.000000
       5    0.000000  0.000000  0.000000  0.000000  0.043611  0.007287
       6    0.000000  0.000000  0.000000  0.000000  0.007287  0.079663

  Mechanical properties :

  Convention :                    Reuss         Voigt         Hill
  Bulk  Modulus (GPa)     =      30.88234     -39.71027      -4.41396
  Shear Modulus (GPa)     =      18.49545       3.60331      11.04938
  Velocity S-wave (km/s)  =       1.65956       0.73251       1.28271
  Velocity P-wave (km/s)  =       2.87591       2.27987       1.23957
  Compressibility (1/GPa) =    0.03238096
  Stress axis :                     x             y             z
  Youngs Moduli (GPa)     =      54.42395      54.42395      38.80292
  Poissons Ratio (x)      =                     1.16778      -0.12393
  Poissons Ratio (y)      =       1.16778                    -0.12393
  Poissons Ratio (z)      =      -0.17382      -0.17382

  Piezoelectric Strain Matrix: (Units=C/m**2)

  Indices      1         2         3         4         5         6
       x     0.00000   0.00000   0.00000   0.00000   0.00000   0.00000
       y     0.00000   0.00000   0.00000   0.00000   0.00000   0.00000
       z     0.00000   0.00000   0.00000   0.00000   0.00000   0.00000

  Piezoelectric Stress Matrix: (Units=10**-11 C/N)

  Indices      1         2         3         4         5         6
       x     0.00000   0.00000   0.00000   0.00000   0.00000   0.00000
       y     0.00000   0.00000   0.00000   0.00000   0.00000   0.00000
       z     0.00000   0.00000   0.00000   0.00000   0.00000   0.00000

  Static dielectric constant tensor :

              x         y         z
       x     2.53141   0.00000   0.00000
       y     0.00000   2.53141   0.00000
       z     0.00000   0.00000   8.13417

  High frequency dielectric constant tensor :

              x         y         z
       x     1.51566   0.00000   0.00000
       y     0.00000   1.51566   0.00000
       z     0.00000   0.00000   1.44135

  Static refractive indices :

    1 =    1.59104      2 =    1.59104      3 =    2.85205

  High frequency refractive indices :

    1 =    1.20056      2 =    1.23112      3 =    1.23112

  Time to end of optimisation =       0.7702 seconds

  Timing analysis for GULP :

  Task / Subroutine                                          Time (Seconds)
  Calculation of reciprocal space energy and derivatives          0.0030
  Calculation of reciprocal space energy using symmetry           0.0133
  Calculation of real space energy and derivatives                0.0279
  Calculation of real space energy using symmetry                 0.7203
  Symmetry generation of equivalent positions                     0.0005
  Global summation overhead                                       0.0001

  CIF file written as perov.cif

  Job Finished at 09:30.26  6th April      2017