  Job Started  at 14:07.08  6th April      2017

  Number of CPUs =     1

  Total number of configurations input =   1

*  Input for Configuration =   1                                               *

  Formula = K2Cu2F6

  Number of irreducible atoms/shells =       6

  Total number atoms/shells =      16

  Dimensionality = 3               :  Bulk

  Symmetry :

  Crystal family                   :  Tetragonal
  Crystal class  (Groth - 1921)    :  Ditetragonal Dipyramidal

  Space group (centrosymmetric)    :  P 4/M B M

  Patterson group                  :  P 4/m m m

  Cartesian lattice vectors (Angstroms) :

        4.200000    0.000000    0.000000
        0.000000    4.200000    0.000000
        0.000000    0.000000    4.200000

  Cell parameters (Angstroms/Degrees):

  a =       4.2000    alpha =  90.0000
  b =       4.2000    beta  =  90.0000
  c =       4.2000    gamma =  90.0000

  Initial cell volume =          74.088000 Angs**3

  Temperature of configuration =  0.000     K

  Pressure of configuration =         0.000 GPa

  Fractional coordinates of asymmetric unit :

   No.  Atomic       x           y          z         Charge      Occupancy
        Label      (Frac)      (Frac)     (Frac)        (e)         (Frac)
      1 K     c    0.000000    0.000000    0.000000     1.20000    1.000000
      2 Cu    c    0.000000    0.500000    0.000000     2.30000    1.000000
      3 F     c    0.000000    0.500000    0.500000     0.37800    1.000000
      4 F     c    0.227100 *  0.727100    0.000000     0.37800    1.000000
      5 F     s    0.000000    0.500000    0.500000    -1.54467    1.000000
      6 F     s    0.227100 *  0.727100    0.000000    -1.54467    1.000000

  Constraints :

  Constraint no.      Unconstrained     Constrained    Coefficient    Offset
                         Variable         Variable
           1              Strain 1        Strain 2       1.00000      0.0000
           2                 4 x             4 y         1.00000      0.5000
           3                 6 x             6 y         1.00000      0.5000

*  General input information                                                   *

  Species output for all configurations :

  Species    Type    Atomic    Atomic    Charge       Radii (Angs)     Library
                     Number     Mass       (e)     Cova   Ionic  VDW   Symbol
    K        Core       19      39.10   1.200000   1.330  0.000  2.800
    Cu       Core       29      63.55   2.300000   1.520  0.000  1.540
    F        Core        9      19.00   0.378000   0.710  0.000  1.300
    F        Shell       9       0.00  -1.544667   0.710  0.000  1.300

  Lattice summation method               =    Ewald          (3-D)
                                         =    Parry          (2-D)
                                         =    Saunders et al (1-D)
  Accuracy factor for lattice sums       =   12.000

  Time limit = Infinity

  Maximum range for interatomic potentials =    100000.000000 Angstroms

  General interatomic potentials :

Atom  Types   Potential         A         B         C         D     Cutoffs(Ang)
  1     2                                                            Min    Max
K    c K    c Buckingham    0.219E+04 0.192      0.00      0.00     0.000 10.000
Cu   c F    s Buckingham    0.148E+04 0.266      0.00      0.00     0.000 10.000
F    s F    s Buckingham     912.     0.271      13.8      0.00     0.000 10.000
K    c F    s Buckingham    0.352E+04 0.267      0.00      0.00     0.000 10.000
F    c F    s Spring (c-s)   30.6      0.00      0.00      0.00     0.000  0.800

*  Output for configuration   1                                                *

  Components of energy :

  Interatomic potentials     =         162.45946484 eV
  Monopole - monopole (real) =         -62.64389962 eV
  Monopole - monopole (recip)=         -90.03346212 eV
  Monopole - monopole (total)=        -152.67736174 eV
  Total lattice energy       =           9.78210311 eV
  Total lattice energy       =             943.8234 kJ/(mole unit cells)

  Number of variables =        4

  Maximum number of calculations  =          1000
  Maximum Hessian update interval =            10
  Maximum step size               =   1.000000000
  Maximum parameter tolerance     =   0.000010000
  Maximum function  tolerance     =   0.000010000
  Maximum gradient  tolerance     =   0.001000000
  Maximum gradient  component     =   0.010000000

  Symmetry constrained optimisation

  Symmetry used for second derivatives

  Cell parameters to be optimised using strains

  Newton-Raphson optimiser to be used

  BFGS hessian update to be used

  Start of bulk optimisation :

  ** Hessian calculated **
  ** Hessian calculated **
  ** Hessian calculated **
  ** Hessian calculated **

  **** Conditions for a minimum have not been satisfied. However ****
  **** no lower point can be found - treat results with caution  ****
  **** unless gradient norm is small (less than 0.1)             ****

  Final energy =    -104.01900038 eV
  Final Gnorm  =       0.30303594

  Components of energy :

  Interatomic potentials     =          15.95925796 eV
  Monopole - monopole (real) =         -32.17326239 eV
  Monopole - monopole (recip)=         -87.80499595 eV
  Monopole - monopole (total)=        -119.97825833 eV
  Total lattice energy       =        -104.01900038 eV
  Total lattice energy       =          -10036.2435 kJ/(mole unit cells)

  Final asymmetric unit coordinates :

   No.  Atomic        x           y           z         Radius
        Label       (Frac)      (Frac)      (Frac)       (Angs)
     1  K     c     0.000000    0.000000    0.000000    0.000000
     2  Cu    c     0.000000    0.500000    0.000000    0.000000
     3  F     c     0.000000    0.500000    0.500000    0.000000
     4  F     c     0.203832    0.703832    0.000000    0.000000
     5  F     s     0.000000    0.500000    0.500000    0.000000
     6  F     s     0.199337    0.699337    0.000000    0.000000

  Final Cartesian lattice vectors (Angstroms) :

        6.581647    0.000000    0.000000
        0.000000    6.581647    0.000000
        0.000000    0.000000    3.655601

  Final cell parameters and derivatives :

       a            6.581647 Angstrom     dE/de1(xx)    -0.245375 eV/strain
       b            6.581647 Angstrom     dE/de2(yy)     0.000000 eV/strain
       c            3.655601 Angstrom     dE/de3(zz)    -0.060347 eV/strain
       alpha       90.000000 Degrees      dE/de4(yz)     0.000000 eV/strain
       beta        90.000000 Degrees      dE/de5(xz)     0.000000 eV/strain
       gamma       90.000000 Degrees      dE/de6(xy)     0.000000 eV/strain

  Primitive cell volume =           158.353606 Angs**3

  Density of cell =      3.348320 g/cm**3

  Non-primitive cell volume =           158.353606 Angs**3

  Final internal derivatives :

   No.  Atomic          a             b             c           Radius
        Label          (eV)          (eV)          (eV)        (eV/Angs)
      1 K     c       0.000000      0.000000      0.000000      0.000000
      2 Cu    c       0.000000      0.000000      0.000000      0.000000
      3 F     c       0.000000      0.000000      0.000000      0.000000
      4 F     c      -1.074216      0.000000      0.000000      0.000000
      5 F     s       0.000000      0.000000      0.000000      0.000000
      6 F     s       0.501500      0.000000      0.000000      0.000000
  Maximum abs         1.074216      0.000000      0.000000      0.000000

  Born effective charge tensors :

  Atom             x           y             z
   1 K     x       1.0251      0.0002      0.0000
           y      -0.0002      1.0251      0.0000
           z       0.0000      0.0000      1.1919
   2 Cu    x       1.8696     -0.2778      0.0000
           y      -0.2778      1.8696      0.0000
           z       0.0000      0.0000      1.6390
   3 F     x      -0.9638      0.0141      0.0000
           y       0.0141     -0.9638      0.0000
           z       0.0000      0.0000     -0.8419
   4 F     x      -0.9654     -0.1642      0.0000
           y      -0.1642     -0.9654      0.0000
           z       0.0000      0.0000     -0.9945

  Elastic Constant Matrix: (Units=GPa)

  Indices      1         2         3         4         5         6
       1    126.5247   23.6381   -4.9202    0.0000    0.0000    0.0000
       2     23.6381  126.5247   -4.9202    0.0000    0.0000    0.0000
       3     -4.9202   -4.9202  191.5042    0.0000    0.0000    0.0000
       4      0.0000    0.0000    0.0000    2.9213    0.0000    0.0000
       5      0.0000    0.0000    0.0000    0.0000    2.9213    0.0000
       6      0.0000    0.0000    0.0000    0.0000    0.0000   21.8650

  Elastic Compliance Matrix: (Units=1/GPa)

  Indices      1         2         3         4         5         6
       1    0.008195 -0.001524  0.000171  0.000000  0.000000  0.000000
       2   -0.001524  0.008195  0.000171  0.000000  0.000000  0.000000
       3    0.000171  0.000171  0.005231  0.000000  0.000000  0.000000
       4    0.000000  0.000000  0.000000  0.342311  0.000000  0.000000
       5    0.000000  0.000000  0.000000  0.000000  0.342311  0.000000
       6    0.000000  0.000000  0.000000  0.000000  0.000000  0.045735

  Mechanical properties :

  Convention :                    Reuss         Voigt         Hill
  Bulk  Modulus (GPa)     =      51.92781      52.46101      52.19441
  Shear Modulus (GPa)     =       6.57238      34.25859      20.41548
  Velocity S-wave (km/s)  =       1.40103       3.19868       2.46926
  Velocity P-wave (km/s)  =       4.25744       5.41387       4.87010
  Compressibility (1/GPa) =    0.01925750
  Stress axis :                     x             y             z
  Youngs Moduli (GPa)     =     122.02480     122.02480     191.18173
  Poissons Ratio (x)      =                     0.18601      -0.03277
  Poissons Ratio (y)      =       0.18601                    -0.03277
  Poissons Ratio (z)      =      -0.02091      -0.02091

  Piezoelectric Strain Matrix: (Units=C/m**2)

  Indices      1         2         3         4         5         6
       x     0.00000   0.00000   0.00000   0.00000   0.00000   0.00000
       y     0.00000   0.00000   0.00000   0.00000   0.00000   0.00000
       z     0.00000   0.00000   0.00000   0.00000   0.00000   0.00000

  Piezoelectric Stress Matrix: (Units=10**-11 C/N)

  Indices      1         2         3         4         5         6
       x     0.00000   0.00000   0.00000   0.00000   0.00000   0.00000
       y     0.00000   0.00000   0.00000   0.00000   0.00000   0.00000
       z     0.00000   0.00000   0.00000   0.00000   0.00000   0.00000

  Static dielectric constant tensor :

              x         y         z
       x     5.95819   0.00000   0.00000
       y     0.00000   5.95819   0.00000
       z     0.00000   0.00000   0.92656

  High frequency dielectric constant tensor :

              x         y         z
       x     1.48472   0.00000   0.00000
       y     0.00000   1.48472   0.00000
       z     0.00000   0.00000   1.48473

  Static refractive indices :

    1 =    0.96258      2 =    2.44094      3 =    2.44094

  High frequency refractive indices :

    1 =    1.21849      2 =    1.21849      3 =    1.21850

  Time to end of optimisation =       0.0617 seconds

  Timing analysis for GULP :

  Task / Subroutine                                          Time (Seconds)
  Calculation of reciprocal space energy and derivatives          0.0010
  Calculation of reciprocal space energy using symmetry           0.0054
  Calculation of real space energy and derivatives                0.0038
  Calculation of real space energy using symmetry                 0.0475
  Symmetry generation of equivalent positions                     0.0005

  CIF file written as perov.cif

  Job Finished at 14:07.08  6th April      2017