  Job Started  at 16:25.38  4th April      2017

  Number of CPUs =     1

  Total number of configurations input =   1

*  Input for Configuration =   1                                               *

  Formula = KZnF3

  Number of irreducible atoms/shells =       4

  Total number atoms/shells =       8

  Dimensionality = 3               :  Bulk

  Symmetry :

  Crystal family                   :  Cubic
  Crystal class  (Groth - 1921)    :  Cubic Hexakisoctahedral

  Space group (centrosymmetric)    :  P M 3 M

  Patterson group                  :  P m -3 m

  Cartesian lattice vectors (Angstroms) :

        4.200000    0.000000    0.000000
        0.000000    4.200000    0.000000
        0.000000    0.000000    4.200000

  Cell parameters (Angstroms/Degrees):

  a =       4.2000    alpha =  90.0000
  b =       4.2000    beta  =  90.0000
  c =       4.2000    gamma =  90.0000

  Initial cell volume =          74.088000 Angs**3

  Temperature of configuration =  0.000     K

  Pressure of configuration =         0.000 GPa

  Fractional coordinates of asymmetric unit :

   No.  Atomic       x           y          z         Charge      Occupancy
        Label      (Frac)      (Frac)     (Frac)        (e)         (Frac)
      1 K     c    0.500000    0.500000    0.500000     0.60000    1.000000
      2 Zn    c    0.000000    0.000000    0.000000     2.20000    1.000000
      3 F     c    0.500000    0.000000    0.000000     0.37800    1.000000
      4 F     s    0.500000    0.000000    0.000000    -1.31133    1.000000

  Constraints :

  Constraint no.      Unconstrained     Constrained    Coefficient    Offset
                         Variable         Variable
           1              Strain 1        Strain 2       1.00000      0.0000
           2              Strain 1        Strain 3       1.00000      0.0000

*  General input information                                                   *

  Species output for all configurations :

  Species    Type    Atomic    Atomic    Charge       Radii (Angs)     Library
                     Number     Mass       (e)     Cova   Ionic  VDW   Symbol
    K        Core       19      39.10   0.600000   1.330  0.000  2.800
    Zn       Core       30      65.39   2.200000   1.450  0.000  2.160
    F        Core        9      19.00   0.378000   0.710  0.000  1.300
    F        Shell       9       0.00  -1.311333   0.710  0.000  1.300

  Lattice summation method               =    Ewald          (3-D)
                                         =    Parry          (2-D)
                                         =    Saunders et al (1-D)
  Accuracy factor for lattice sums       =   12.000

  Time limit = Infinity

  Maximum range for interatomic potentials =    100000.000000 Angstroms

  General interatomic potentials :

Atom  Types   Potential         A         B         C         D     Cutoffs(Ang)
  1     2                                                            Min    Max
K    c K    c Buckingham    0.219E+04 0.192      0.00      0.00     0.000 10.000
Zn   c F    s Buckingham    0.148E+04 0.266      0.00      0.00     0.000 10.000
F    s F    s Buckingham     912.     0.271      13.8      0.00     0.000 10.000
K    c F    s Buckingham    0.352E+04 0.267      0.00      0.00     0.000 10.000
F    c F    s Spring (c-s)   22.0      0.00      0.00      0.00     0.000  0.800

*  Output for configuration   1                                                *

  Components of energy :

  Interatomic potentials     =           3.87670295 eV
  Monopole - monopole (real) =         -10.34410050 eV
  Monopole - monopole (recip)=         -31.12608850 eV
  Monopole - monopole (total)=         -41.47018900 eV
  Total lattice energy       =         -37.59348605 eV
  Total lattice energy       =           -3627.1967 kJ/(mole unit cells)

  Number of variables =        1

  Maximum number of calculations  =          1000
  Maximum Hessian update interval =            10
  Maximum step size               =   1.000000000
  Maximum parameter tolerance     =   0.000010000
  Maximum function  tolerance     =   0.000010000
  Maximum gradient  tolerance     =   0.001000000
  Maximum gradient  component     =   0.010000000

  Symmetry constrained optimisation

  Symmetry used for second derivatives

  Cell parameters to be optimised using strains

  Newton-Raphson optimiser to be used

  BFGS hessian update to be used

  Start of bulk optimisation :

  ** Hessian calculated **

  **** Optimisation achieved ****

  Final energy =     -37.71720535 eV
  Final Gnorm  =       0.00000011

  Components of energy :

  Interatomic potentials     =           5.04812368 eV
  Monopole - monopole (real) =         -10.66715325 eV
  Monopole - monopole (recip)=         -32.09817578 eV
  Monopole - monopole (total)=         -42.76532903 eV
  Total lattice energy       =         -37.71720535 eV
  Total lattice energy       =           -3639.1338 kJ/(mole unit cells)

  Final asymmetric unit coordinates :

   No.  Atomic        x           y           z         Radius
        Label       (Frac)      (Frac)      (Frac)       (Angs)
     1  K     c     0.500000    0.500000    0.500000    0.000000
     2  Zn    c     0.000000    0.000000    0.000000    0.000000
     3  F     c     0.500000    0.000000    0.000000    0.000000
     4  F     s     0.500000    0.000000    0.000000    0.000000

  Final Cartesian lattice vectors (Angstroms) :

        4.072804    0.000000    0.000000
        0.000000    4.072804    0.000000
        0.000000    0.000000    4.072804

  Final cell parameters and derivatives :

       a            4.072804 Angstrom     dE/de1(xx)     0.000000 eV/strain
       b            4.072804 Angstrom     dE/de2(yy)     0.000000 eV/strain
       c            4.072804 Angstrom     dE/de3(zz)     0.000000 eV/strain
       alpha       90.000000 Degrees      dE/de4(yz)     0.000000 eV/strain
       beta        90.000000 Degrees      dE/de5(xz)     0.000000 eV/strain
       gamma       90.000000 Degrees      dE/de6(xy)     0.000000 eV/strain

  Primitive cell volume =            67.558572 Angs**3

  Density of cell =      3.969366 g/cm**3

  Non-primitive cell volume =            67.558572 Angs**3

  Final internal derivatives :

   No.  Atomic          a             b             c           Radius
        Label          (eV)          (eV)          (eV)        (eV/Angs)
      1 K     c       0.000000      0.000000      0.000000      0.000000
      2 Zn    c       0.000000      0.000000      0.000000      0.000000
      3 F     c       0.000000      0.000000      0.000000      0.000000
      4 F     s       0.000000      0.000000      0.000000      0.000000
  Maximum abs         0.000000      0.000000      0.000000      0.000000

  Born effective charge tensors :

  Atom             x           y             z
   1 K     x       0.5300      0.0000      0.0000
           y       0.0000      0.5300      0.0000
           z       0.0000      0.0000      0.5300
   2 Zn    x       1.8414      0.0000      0.0000
           y       0.0000      1.8414      0.0000
           z       0.0000      0.0000      1.8414
   3 F     x      -0.9184      0.0000      0.0000
           y       0.0000     -0.7265      0.0000
           z       0.0000      0.0000     -0.7265

  Elastic Constant Matrix: (Units=GPa)

  Indices      1         2         3         4         5         6
       1    138.0427   42.2633   42.2633    0.0000    0.0000    0.0000
       2     42.2633  138.0427   42.2633    0.0000    0.0000    0.0000
       3     42.2633   42.2633  138.0427    0.0000    0.0000    0.0000
       4      0.0000    0.0000    0.0000   42.2633    0.0000    0.0000
       5      0.0000    0.0000    0.0000    0.0000   42.2633    0.0000
       6      0.0000    0.0000    0.0000    0.0000    0.0000   42.2633

  Elastic Compliance Matrix: (Units=1/GPa)

  Indices      1         2         3         4         5         6
       1    0.008458 -0.001983 -0.001983  0.000000  0.000000  0.000000
       2   -0.001983  0.008458 -0.001983  0.000000  0.000000  0.000000
       3   -0.001983 -0.001983  0.008458  0.000000  0.000000  0.000000
       4    0.000000  0.000000  0.000000  0.023661  0.000000  0.000000
       5    0.000000  0.000000  0.000000  0.000000  0.023661  0.000000
       6    0.000000  0.000000  0.000000  0.000000  0.000000  0.023661

  Mechanical properties :

  Convention :                    Reuss         Voigt         Hill
  Bulk  Modulus (GPa)     =      74.18974      74.18974      74.18974
  Shear Modulus (GPa)     =      44.34737      44.51384      44.43061
  Velocity S-wave (km/s)  =       3.34251       3.34878       3.34565
  Velocity P-wave (km/s)  =       5.79544       5.80026       5.79785
  Compressibility (1/GPa) =    0.01347895
  Stress axis :                     x             y             z
  Youngs Moduli (GPa)     =     118.22992     118.22992     118.22992
  Poissons Ratio (x)      =                     0.23440       0.23440
  Poissons Ratio (y)      =       0.23440                     0.23440
  Poissons Ratio (z)      =       0.23440       0.23440

  Piezoelectric Strain Matrix: (Units=C/m**2)

  Indices      1         2         3         4         5         6
       x     0.00000   0.00000   0.00000   0.00000   0.00000   0.00000
       y     0.00000   0.00000   0.00000   0.00000   0.00000   0.00000
       z     0.00000   0.00000   0.00000   0.00000   0.00000   0.00000

  Piezoelectric Stress Matrix: (Units=10**-11 C/N)

  Indices      1         2         3         4         5         6
       x     0.00000   0.00000   0.00000   0.00000   0.00000   0.00000
       y     0.00000   0.00000   0.00000   0.00000   0.00000   0.00000
       z     0.00000   0.00000   0.00000   0.00000   0.00000   0.00000

  Static dielectric constant tensor :

              x         y         z
       x     3.30642   0.00000   0.00000
       y     0.00000   3.30642   0.00000
       z     0.00000   0.00000   3.30642

  High frequency dielectric constant tensor :

              x         y         z
       x     1.59610   0.00000   0.00000
       y     0.00000   1.59610   0.00000
       z     0.00000   0.00000   1.59610

  Static refractive indices :

    1 =    1.81836      2 =    1.81836      3 =    1.81836

  High frequency refractive indices :

    1 =    1.26337      2 =    1.26337      3 =    1.26337

  Time to end of optimisation =       0.0115 seconds

  Timing analysis for GULP :

  Task / Subroutine                                          Time (Seconds)
  Calculation of reciprocal space energy and derivatives          0.0003
  Calculation of reciprocal space energy using symmetry           0.0006
  Calculation of real space energy and derivatives                0.0013
  Calculation of real space energy using symmetry                 0.0055
  Symmetry generation of equivalent positions                     0.0011

  CIF file written as perov.cif

  Job Finished at 16:25.38  4th April      2017