  Job Started  at 16:25.38  4th April      2017

  Number of CPUs =     1

  Total number of configurations input =   1

*  Input for Configuration =   1                                               *

  Formula = KZnF3

  Number of irreducible atoms/shells =       4

  Total number atoms/shells =       8

  Dimensionality = 3               :  Bulk

  Symmetry :

  Crystal family                   :  Cubic
  Crystal class  (Groth - 1921)    :  Cubic Hexakisoctahedral

  Space group (centrosymmetric)    :  P M 3 M

  Patterson group                  :  P m -3 m

  Cartesian lattice vectors (Angstroms) :

        4.200000    0.000000    0.000000
        0.000000    4.200000    0.000000
        0.000000    0.000000    4.200000

  Cell parameters (Angstroms/Degrees):

  a =       4.2000    alpha =  90.0000
  b =       4.2000    beta  =  90.0000
  c =       4.2000    gamma =  90.0000

  Initial cell volume =          74.088000 Angs**3

  Temperature of configuration =  0.000     K

  Pressure of configuration =         0.000 GPa

  Fractional coordinates of asymmetric unit :

   No.  Atomic       x           y          z         Charge      Occupancy
        Label      (Frac)      (Frac)     (Frac)        (e)         (Frac)
      1 K     c    0.500000    0.500000    0.500000     0.60000    1.000000
      2 Zn    c    0.000000    0.000000    0.000000     1.50000    1.000000
      3 F     c    0.500000    0.000000    0.000000     0.37800    1.000000
      4 F     s    0.500000    0.000000    0.000000    -1.07800    1.000000

  Constraints :

  Constraint no.      Unconstrained     Constrained    Coefficient    Offset
                         Variable         Variable
           1              Strain 1        Strain 2       1.00000      0.0000
           2              Strain 1        Strain 3       1.00000      0.0000

*  General input information                                                   *

  Species output for all configurations :

  Species    Type    Atomic    Atomic    Charge       Radii (Angs)     Library
                     Number     Mass       (e)     Cova   Ionic  VDW   Symbol
    K        Core       19      39.10   0.600000   1.330  0.000  2.800
    Zn       Core       30      65.39   1.500000   1.450  0.000  2.160
    F        Core        9      19.00   0.378000   0.710  0.000  1.300
    F        Shell       9       0.00  -1.078000   0.710  0.000  1.300

  Lattice summation method               =    Ewald          (3-D)
                                         =    Parry          (2-D)
                                         =    Saunders et al (1-D)
  Accuracy factor for lattice sums       =   12.000

  Time limit = Infinity

  Maximum range for interatomic potentials =    100000.000000 Angstroms

  General interatomic potentials :

Atom  Types   Potential         A         B         C         D     Cutoffs(Ang)
  1     2                                                            Min    Max
K    c K    c Buckingham    0.219E+04 0.192      0.00      0.00     0.000 10.000
Zn   c F    s Buckingham    0.148E+04 0.266      0.00      0.00     0.000 10.000
F    s F    s Buckingham     912.     0.271      13.8      0.00     0.000 10.000
K    c F    s Buckingham    0.352E+04 0.267      0.00      0.00     0.000 10.000
F    c F    s Spring (c-s)   14.9      0.00      0.00      0.00     0.000  0.800

*  Output for configuration   1                                                *

  Components of energy :

  Interatomic potentials     =           3.87670295 eV
  Monopole - monopole (real) =          -5.40021264 eV
  Monopole - monopole (recip)=         -16.30218435 eV
  Monopole - monopole (total)=         -21.70239699 eV
  Total lattice energy       =         -17.82569404 eV
  Total lattice energy       =           -1719.9070 kJ/(mole unit cells)

  Number of variables =        1

  Maximum number of calculations  =          1000
  Maximum Hessian update interval =            10
  Maximum step size               =   1.000000000
  Maximum parameter tolerance     =   0.000010000
  Maximum function  tolerance     =   0.000010000
  Maximum gradient  tolerance     =   0.001000000
  Maximum gradient  component     =   0.010000000

  Symmetry constrained optimisation

  Symmetry used for second derivatives

  Cell parameters to be optimised using strains

  Newton-Raphson optimiser to be used

  BFGS hessian update to be used

  Start of bulk optimisation :

  ** Hessian calculated **
  ** Hessian calculated **
  ** Hessian calculated **
  ** Hessian calculated **

  **** Conditions for a minimum have not been satisfied. However ****
  **** no lower point can be found - treat results with caution  ****
  **** unless gradient norm is small (less than 0.1)             ****

  Final energy =     -18.17353767 eV
  Final Gnorm  =       0.00932864

  Components of energy :

  Interatomic potentials     =           2.20836971 eV
  Monopole - monopole (real) =          -5.07163489 eV
  Monopole - monopole (recip)=         -15.31027248 eV
  Monopole - monopole (total)=         -20.38190738 eV
  Total lattice energy       =         -18.17353767 eV
  Total lattice energy       =           -1753.4686 kJ/(mole unit cells)

  Final asymmetric unit coordinates :

   No.  Atomic        x           y           z         Radius
        Label       (Frac)      (Frac)      (Frac)       (Angs)
     1  K     c     0.500000    0.500000    0.500000    0.000000
     2  Zn    c     0.000000    0.000000    0.000000    0.000000
     3  F     c     0.500000    0.000000    0.000000    0.000000
     4  F     s     0.500000    0.000000    0.000000    0.000000

  Final Cartesian lattice vectors (Angstroms) :

        4.472107    0.000000    0.000000
        0.000000    4.472107    0.000000
        0.000000    0.000000    4.472107

  Final cell parameters and derivatives :

       a            4.472107 Angstrom     dE/de1(xx)    -0.009329 eV/strain
       b            4.472107 Angstrom     dE/de2(yy)     0.000000 eV/strain
       c            4.472107 Angstrom     dE/de3(zz)     0.000000 eV/strain
       alpha       90.000000 Degrees      dE/de4(yz)     0.000000 eV/strain
       beta        90.000000 Degrees      dE/de5(xz)     0.000000 eV/strain
       gamma       90.000000 Degrees      dE/de6(xy)     0.000000 eV/strain

  Primitive cell volume =            89.440972 Angs**3

  Density of cell =      2.998231 g/cm**3

  Non-primitive cell volume =            89.440972 Angs**3

  Final internal derivatives :

   No.  Atomic          a             b             c           Radius
        Label          (eV)          (eV)          (eV)        (eV/Angs)
      1 K     c       0.000000      0.000000      0.000000      0.000000
      2 Zn    c       0.000000      0.000000      0.000000      0.000000
      3 F     c       0.000000      0.000000      0.000000      0.000000
      4 F     s       0.000000      0.000000      0.000000      0.000000
  Maximum abs         0.000000      0.000000      0.000000      0.000000

  Born effective charge tensors :

  Atom             x           y             z
   1 K     x       0.6065      0.0000      0.0000
           y       0.0000      0.6065      0.0000
           z       0.0000      0.0000      0.6065
   2 Zn    x       1.2274      0.0000      0.0000
           y       0.0000      1.2274      0.0000
           z       0.0000      0.0000      1.2274
   3 F     x      -0.6238      0.0000      0.0000
           y       0.0000     -0.6050      0.0000
           z       0.0000      0.0000     -0.6050

  Elastic Constant Matrix: (Units=GPa)

  Indices      1         2         3         4         5         6
       1     60.6683   13.9330   13.9330    0.0000    0.0000    0.0000
       2     13.9330   60.6683   13.9330    0.0000    0.0000    0.0000
       3     13.9330   13.9330   60.6683    0.0000    0.0000    0.0000
       4      0.0000    0.0000    0.0000   13.9275    0.0000    0.0000
       5      0.0000    0.0000    0.0000    0.0000   13.9275    0.0000
       6      0.0000    0.0000    0.0000    0.0000    0.0000   13.9275

  Elastic Compliance Matrix: (Units=1/GPa)

  Indices      1         2         3         4         5         6
       1    0.018030 -0.003367 -0.003367  0.000000  0.000000  0.000000
       2   -0.003367  0.018030 -0.003367  0.000000  0.000000  0.000000
       3   -0.003367 -0.003367  0.018030  0.000000  0.000000  0.000000
       4    0.000000  0.000000  0.000000  0.071801  0.000000  0.000000
       5    0.000000  0.000000  0.000000  0.000000  0.071801  0.000000
       6    0.000000  0.000000  0.000000  0.000000  0.000000  0.071801

  Mechanical properties :

  Convention :                    Reuss         Voigt         Hill
  Bulk  Modulus (GPa)     =      29.51145      29.51145      29.51145
  Shear Modulus (GPa)     =      16.61183      17.70353      17.15768
  Velocity S-wave (km/s)  =       2.35384       2.42995       2.39220
  Velocity P-wave (km/s)  =       4.15095       4.20902       4.18008
  Compressibility (1/GPa) =    0.03388515
  Stress axis :                     x             y             z
  Youngs Moduli (GPa)     =      55.46386      55.46386      55.46386
  Poissons Ratio (x)      =                     0.18677       0.18677
  Poissons Ratio (y)      =       0.18677                     0.18677
  Poissons Ratio (z)      =       0.18677       0.18677

  Piezoelectric Strain Matrix: (Units=C/m**2)

  Indices      1         2         3         4         5         6
       x     0.00000   0.00000   0.00000   0.00000   0.00000   0.00000
       y     0.00000   0.00000   0.00000   0.00000   0.00000   0.00000
       z     0.00000   0.00000   0.00000   0.00000   0.00000   0.00000

  Piezoelectric Stress Matrix: (Units=10**-11 C/N)

  Indices      1         2         3         4         5         6
       x     0.00000   0.00000   0.00000   0.00000   0.00000   0.00000
       y     0.00000   0.00000   0.00000   0.00000   0.00000   0.00000
       z     0.00000   0.00000   0.00000   0.00000   0.00000   0.00000

  Static dielectric constant tensor :

              x         y         z
       x     3.80278   0.00000   0.00000
       y     0.00000   3.80278   0.00000
       z     0.00000   0.00000   3.80278

  High frequency dielectric constant tensor :

              x         y         z
       x     1.46034   0.00000   0.00000
       y     0.00000   1.46034   0.00000
       z     0.00000   0.00000   1.46034

  Static refractive indices :

    1 =    1.95007      2 =    1.95007      3 =    1.95007

  High frequency refractive indices :

    1 =    1.20845      2 =    1.20845      3 =    1.20845

  Time to end of optimisation =       0.0225 seconds

  Timing analysis for GULP :

  Task / Subroutine                                          Time (Seconds)
  Calculation of reciprocal space energy and derivatives          0.0003
  Calculation of reciprocal space energy using symmetry           0.0018
  Calculation of real space energy and derivatives                0.0012
  Calculation of real space energy using symmetry                 0.0150
  Symmetry generation of equivalent positions                     0.0011

  CIF file written as perov.cif

  Job Finished at 16:25.38  4th April      2017