  Job Started  at 09:41.44  6th April      2017

  Number of CPUs =     1

  Total number of configurations input =   1

*  Input for Configuration =   1                                               *

  Formula = K4Ca4F12

  Number of irreducible atoms/shells =       6

  Total number atoms/shells =      32

  Dimensionality = 3               :  Bulk

  Symmetry :

  Crystal family                   :  Orthorhombic
  Crystal class  (Groth - 1921)    :  Orthorhombic Bipyramidal

  Space group (centrosymmetric)    :  P N M A

  Patterson group                  :  P m m m

  Cartesian lattice vectors (Angstroms) :

        6.223500    0.000000    0.000000
        0.000000    8.710300    0.000000
        0.000000    0.000000    6.118000

  Cell parameters (Angstroms/Degrees):

  a =       6.2235    alpha =  90.0000
  b =       8.7103    beta  =  90.0000
  c =       6.1180    gamma =  90.0000

  Initial cell volume =         331.647921 Angs**3

  Temperature of configuration =  0.000     K

  Pressure of configuration =         0.000 GPa

  Fractional coordinates of asymmetric unit :

   No.  Atomic       x           y          z         Charge      Occupancy
        Label      (Frac)      (Frac)     (Frac)        (e)         (Frac)
      1 K     c    0.042000    0.250000    0.490600     1.00000    1.000000
      2 Ca    c    0.000000    0.000000    0.000000     1.80000    1.000000
      3 F     c    0.471500    0.250000    0.581200     0.37800    1.000000
      4 F     c    0.291600    0.040400    0.206800     0.37800    1.000000
      5 F     s    0.471500    0.250000    0.581200    -1.31133    1.000000
      6 F     s    0.291600    0.040400    0.206800    -1.31133    1.000000

*  General input information                                                   *

  Species output for all configurations :

  Species    Type    Atomic    Atomic    Charge       Radii (Angs)     Library
                     Number     Mass       (e)     Cova   Ionic  VDW   Symbol
    K        Core       19      39.10   1.000000   1.330  0.000  2.800
    Ca       Core       20      40.08   1.800000   0.990  0.000  2.750
    F        Core        9      19.00   0.378000   0.710  0.000  1.300
    F        Shell       9       0.00  -1.311333   0.710  0.000  1.300

  Lattice summation method               =    Ewald          (3-D)
                                         =    Parry          (2-D)
                                         =    Saunders et al (1-D)
  Accuracy factor for lattice sums       =   12.000

  Time limit = Infinity

  Maximum range for interatomic potentials =    100000.000000 Angstroms

  General interatomic potentials :

Atom  Types   Potential         A         B         C         D     Cutoffs(Ang)
  1     2                                                            Min    Max
K    c K    c Buckingham    0.219E+04 0.192      0.00      0.00     0.000 20.000
Ca   c F    s Buckingham    0.148E+04 0.266      0.00      0.00     0.000 20.000
F    s F    s Buckingham     912.     0.271      13.8      0.00     0.000 20.000
K    c F    s Buckingham    0.352E+04 0.267      0.00      0.00     0.000 20.000
F    c F    s Spring (c-s)   22.0      0.00      0.00      0.00     0.000  0.800

*  Output for configuration   1                                                *

  Components of energy :

  Interatomic potentials     =          10.64846977 eV
  Monopole - monopole (real) =         -62.20022706 eV
  Monopole - monopole (recip)=         -76.09221346 eV
  Monopole - monopole (total)=        -138.29244052 eV
  Total lattice energy       =        -127.64397075 eV
  Total lattice energy       =          -12315.6920 kJ/(mole unit cells)

  Number of variables =        3

  Maximum number of calculations  =          1000
  Maximum Hessian update interval =            10
  Maximum step size               =   1.000000000
  Maximum parameter tolerance     =   0.000010000
  Maximum function  tolerance     =   0.000010000
  Maximum gradient  tolerance     =   0.001000000
  Maximum gradient  component     =   0.010000000

  Symmetry constrained optimisation

  Symmetry used for second derivatives

  Cell parameters to be optimised using strains

  Newton-Raphson optimiser to be used

  BFGS hessian update to be used

  Start of bulk optimisation :

  ** Hessian calculated **

  **** Optimisation achieved ****

  Final energy =    -128.60044515 eV
  Final Gnorm  =       0.00077145

  Components of energy :

  Interatomic potentials     =          16.23285080 eV
  Monopole - monopole (real) =         -65.13931519 eV
  Monopole - monopole (recip)=         -79.69398076 eV
  Monopole - monopole (total)=        -144.83329595 eV
  Total lattice energy       =        -128.60044515 eV
  Total lattice energy       =          -12407.9771 kJ/(mole unit cells)

  Final asymmetric unit coordinates :

   No.  Atomic        x           y           z         Radius
        Label       (Frac)      (Frac)      (Frac)       (Angs)
     1  K     c     0.042000    0.250000    0.490600    0.000000
     2  Ca    c     0.000000    0.000000    0.000000    0.000000
     3  F     c     0.471500    0.250000    0.581200    0.000000
     4  F     c     0.291600    0.040400    0.206800    0.000000
     5  F     s     0.471500    0.250000    0.581200    0.000000
     6  F     s     0.291600    0.040400    0.206800    0.000000

  Final Cartesian lattice vectors (Angstroms) :

        5.961868    0.000000    0.000000
        0.000000    8.272642    0.000000
        0.000000    0.000000    5.853194

  Final cell parameters and derivatives :

       a            5.961868 Angstrom     dE/de1(xx)    -0.001131 eV/strain
       b            8.272642 Angstrom     dE/de2(yy)    -0.001633 eV/strain
       c            5.853194 Angstrom     dE/de3(zz)    -0.001187 eV/strain
       alpha       90.000000 Degrees      dE/de4(yz)     0.000000 eV/strain
       beta        90.000000 Degrees      dE/de5(xz)     0.000000 eV/strain
       gamma       90.000000 Degrees      dE/de6(xy)     0.000000 eV/strain

  Primitive cell volume =           288.681886 Angs**3

  Density of cell =      3.133356 g/cm**3

  Non-primitive cell volume =           288.681886 Angs**3

  Final internal derivatives :

   No.  Atomic          a             b             c           Radius
        Label          (eV)          (eV)          (eV)        (eV/Angs)
      1 K     c       0.000000      0.000000      0.000000      0.000000
      2 Ca    c       0.000000      0.000000      0.000000      0.000000
      3 F     c       0.000000      0.000000      0.000000      0.000000
      4 F     c       0.000000      0.000000      0.000000      0.000000
      5 F     s       0.000000      0.000000      0.000000      0.000000
      6 F     s       0.000000      0.000000      0.000000      0.000000
  Maximum abs         0.000000      0.000000      0.000000      0.000000

  Born effective charge tensors :

  Atom             x           y             z
   1 K     x       0.9015      0.0000     -0.0371
           y       0.0000      0.9412      0.0000
           z      -0.0388      0.0000      0.8916
   2 Ca    x       1.5823      0.0104     -0.0172
           y       0.0018      1.5505     -0.0077
           z       0.0033      0.0178      1.5829
   3 F     x      -0.7770      0.0000      0.0198
           y       0.0000     -0.9090      0.0000
           z       0.0297      0.0000     -0.7554
   4 F     x      -0.8534      0.0204     -0.0717
           y       0.0253     -0.7914     -0.0216
           z      -0.0702     -0.0219     -0.8596

  Elastic Constant Matrix: (Units=GPa)

  Indices      1         2         3         4         5         6
       1     93.7868   40.8022   43.3045    0.0000    0.0000    0.0000
       2     40.8022   99.6376   45.1597    0.0000    0.0000    0.0000
       3     43.3045   45.1597   98.0509    0.0000    0.0000    0.0000
       4      0.0000    0.0000    0.0000   31.0019    0.0000    0.0000
       5      0.0000    0.0000    0.0000    0.0000   25.7493    0.0000
       6      0.0000    0.0000    0.0000    0.0000    0.0000   35.9220

  Elastic Compliance Matrix: (Units=1/GPa)

  Indices      1         2         3         4         5         6
       1    0.014463 -0.003826 -0.004625  0.000000  0.000000  0.000000
       2   -0.003826  0.013696 -0.004618  0.000000  0.000000  0.000000
       3   -0.004625 -0.004618  0.014369  0.000000  0.000000  0.000000
       4    0.000000  0.000000  0.000000  0.032256  0.000000  0.000000
       5    0.000000  0.000000  0.000000  0.000000  0.038836  0.000000
       6    0.000000  0.000000  0.000000  0.000000  0.000000  0.027838

  Mechanical properties :

  Convention :                    Reuss         Voigt         Hill
  Bulk  Modulus (GPa)     =      61.01974      61.11200      61.06587
  Shear Modulus (GPa)     =      28.89166      29.34858      29.12012
  Velocity S-wave (km/s)  =       3.03656       3.06047       3.04854
  Velocity P-wave (km/s)  =       5.63635       5.65618       5.64627
  Compressibility (1/GPa) =    0.01638814
  Stress axis :                     x             y             z
  Youngs Moduli (GPa)     =      69.14331      73.01151      69.59610
  Poissons Ratio (x)      =                     0.27936       0.32190
  Poissons Ratio (y)      =       0.26456                     0.32142
  Poissons Ratio (z)      =       0.31980       0.33719

  Piezoelectric Strain Matrix: (Units=C/m**2)

  Indices      1         2         3         4         5         6
       x     0.00000   0.00000   0.00000   0.00000   0.00000   0.00000
       y     0.00000   0.00000   0.00000   0.00000   0.00000   0.00000
       z     0.00000   0.00000   0.00000   0.00000   0.00000   0.00000

  Piezoelectric Stress Matrix: (Units=10**-11 C/N)

  Indices      1         2         3         4         5         6
       x     0.00000   0.00000   0.00000   0.00000   0.00000   0.00000
       y     0.00000   0.00000   0.00000   0.00000   0.00000   0.00000
       z     0.00000   0.00000   0.00000   0.00000   0.00000   0.00000

  Static dielectric constant tensor :

              x         y         z
       x     3.92363   0.00000   0.00000
       y     0.00000   4.14014   0.00000
       z     0.00000   0.00000   3.69441

  High frequency dielectric constant tensor :

              x         y         z
       x     1.57262   0.00000   0.00000
       y     0.00000   1.57425   0.00000
       z     0.00000   0.00000   1.57054

  Static refractive indices :

    1 =    1.92208      2 =    1.98082      3 =    2.03473

  High frequency refractive indices :

    1 =    1.25321      2 =    1.25404      3 =    1.25469

  Time to end of optimisation =       0.0753 seconds

  Timing analysis for GULP :

  Task / Subroutine                                          Time (Seconds)
  Calculation of reciprocal space energy and derivatives          0.0026
  Calculation of reciprocal space energy using symmetry           0.0045
  Calculation of real space energy and derivatives                0.0191
  Calculation of real space energy using symmetry                 0.0445
  Symmetry generation of equivalent positions                     0.0004

  CIF file written as perov.cif

  Job Finished at 09:41.44  6th April      2017