  Job Started  at 14:01.03 22nd February   2017

  Number of CPUs =     1

  Total number of configurations input =   1

*  Input for Configuration =   1                                               *

  Formula = KZnF3

  Number of irreducible atoms/shells =       8

  Total number atoms/shells =       8

  Dimensionality = 3               :  Bulk

  Cartesian lattice vectors (Angstroms) :

        4.200000    0.000000    0.000000
        0.000000    4.200000    0.000000
        0.000000    0.000000    4.200000

  Cell parameters (Angstroms/Degrees):

  a =       4.2000    alpha =  90.0000
  b =       4.2000    beta  =  90.0000
  c =       4.2000    gamma =  90.0000

  Initial cell volume =          74.088000 Angs**3

  Temperature of configuration =  0.000     K

  Pressure of configuration =         0.000 GPa

  Fractional coordinates of asymmetric unit :

   No.  Atomic       x           y          z         Charge      Occupancy
        Label      (Frac)      (Frac)     (Frac)        (e)         (Frac)
      1 K     c    0.000000    0.000000    0.000000     0.80000    1.000000
      2 Zn    c    0.500000 *  0.500000 *  0.500000 *   1.50000    1.000000
      3 F     c    0.500000 *  0.500000 *  0.000000 *   0.37800    1.000000
      4 F     c    0.000000 *  0.500000 *  0.500000 *   0.37800    1.000000
      5 F     c    0.500000 *  0.000000 *  0.500000 *   0.37800    1.000000
      6 F     s    0.500000 *  0.500000 *  0.000000 *  -1.14467    1.000000
      7 F     s    0.000000 *  0.500000 *  0.500000 *  -1.14467    1.000000
      8 F     s    0.500000 *  0.000000 *  0.500000 *  -1.14467    1.000000

*  General input information                                                   *

  Species output for all configurations :

  Species    Type    Atomic    Atomic    Charge       Radii (Angs)     Library
                     Number     Mass       (e)     Cova   Ionic  VDW   Symbol
    K        Core       19      39.10   0.800000   1.330  0.000  2.800
    Zn       Core       30      65.39   1.500000   1.450  0.000  2.160
    F        Core        9      19.00   0.378000   0.710  0.000  1.300
    F        Shell       9       0.00  -1.144667   0.710  0.000  1.300

  Lattice summation method               =    Ewald          (3-D)
                                         =    Parry          (2-D)
                                         =    Saunders et al (1-D)
  Accuracy factor for lattice sums       =   12.000

  Time limit = Infinity

  Maximum range for interatomic potentials =    100000.000000 Angstroms

  General interatomic potentials :

Atom  Types   Potential         A         B         C         D     Cutoffs(Ang)
  1     2                                                            Min    Max
K    c K    c Buckingham    0.219E+04 0.192      0.00      0.00     0.000 10.000
Zn   c F    s Buckingham    0.148E+04 0.266      0.00      0.00     0.000 10.000
F    s F    s Buckingham     912.     0.271      60.0      0.00     0.000 10.000
K    c F    s Buckingham    0.352E+04 0.267      0.00      0.00     0.000 10.000
F    c F    s Spring (c-s)   16.8      0.00      0.00      0.00     0.000  0.800

*  Output for configuration   1                                                *

  Components of energy :

  Interatomic potentials     =           2.87991129 eV
  Monopole - monopole (real) =          -6.05248284 eV
  Monopole - monopole (recip)=         -18.59216263 eV
  Monopole - monopole (total)=         -24.64464547 eV
  Total lattice energy       =         -21.76473418 eV
  Total lattice energy       =           -2099.9641 kJ/(mole unit cells)

  Number of variables =       27

  Maximum number of calculations  =          1000
  Maximum Hessian update interval =            10
  Maximum step size               =   1.000000000
  Maximum parameter tolerance     =   0.000010000
  Maximum function  tolerance     =   0.000010000
  Maximum gradient  tolerance     =   0.001000000
  Maximum gradient  component     =   0.010000000

  Symmetry not applied to optimisation

  Cell parameters to be optimised using strains

  Newton-Raphson optimiser to be used

  BFGS hessian update to be used

  Start of bulk optimisation :

  ** Hessian calculated **
  ** Hessian calculated **
  ** Hessian calculated **
  ** Hessian calculated **
  ** Hessian calculated **
  ** Hessian calculated **
  ** Hessian calculated **

  **** Conditions for a minimum have not been satisfied. However ****
  **** no lower point can be found - treat results with caution  ****
  **** unless gradient norm is small (less than 0.1)             ****

  Final energy =     -21.78982923 eV
  Final Gnorm  =       0.00515287

  Components of energy :

  Interatomic potentials     =           2.48483401 eV
  Monopole - monopole (real) =          -5.96161884 eV
  Monopole - monopole (recip)=         -18.31304440 eV
  Monopole - monopole (total)=         -24.27466324 eV
  Total lattice energy       =         -21.78982923 eV
  Total lattice energy       =           -2102.3854 kJ/(mole unit cells)

  Final fractional coordinates of atoms :

   No.  Atomic        x           y          z          Radius
        Label       (Frac)      (Frac)     (Frac)       (Angs)
     1  K     c     0.000000    0.000000    0.000000    0.000000
     2  Zn    c     0.500000    0.500000    0.500000    0.000000
     3  F     c     0.500000    0.500000    1.000000    0.000000
     4  F     c     0.000000    0.500000    0.500000    0.000000
     5  F     c     0.500000    0.000000    0.500000    0.000000
     6  F     s     0.500000    0.500000    1.000000    0.000000
     7  F     s     0.000000    0.500000    0.500000    0.000000
     8  F     s     0.500000    0.000000    0.500000    0.000000

  Final Cartesian lattice vectors (Angstroms) :

        4.264014    0.000000    0.000000
        0.000000    4.264014    0.000000
        0.000000    0.000000    4.264014

  Final cell parameters and derivatives :

       a            4.264014 Angstrom     dE/de1(xx)    -0.080325 eV/strain
       b            4.264014 Angstrom     dE/de2(yy)    -0.080325 eV/strain
       c            4.264014 Angstrom     dE/de3(zz)    -0.080325 eV/strain
       alpha       90.000000 Degrees      dE/de4(yz)     0.000000 eV/strain
       beta        90.000000 Degrees      dE/de5(xz)     0.000000 eV/strain
       gamma       90.000000 Degrees      dE/de6(xy)     0.000000 eV/strain

  Primitive cell volume =            77.527531 Angs**3

  Density of cell =      3.458961 g/cm**3

  Non-primitive cell volume =            77.527531 Angs**3

  Final internal derivatives :

   No.  Atomic          a             b             c           Radius
        Label          (eV)          (eV)          (eV)        (eV/Angs)
      1 K     c       0.000000      0.000000      0.000000      0.000000
      2 Zn    c       0.000000      0.000000      0.000000      0.000000
      3 F     c       0.000000      0.000000      0.000000      0.000000
      4 F     c       0.000000      0.000000      0.000000      0.000000
      5 F     c       0.000000      0.000000      0.000000      0.000000
      6 F     s       0.000000      0.000000      0.000000      0.000000
      7 F     s       0.000000      0.000000      0.000000      0.000000
      8 F     s       0.000000      0.000000      0.000000      0.000000
  Maximum abs         0.000000      0.000000      0.000000      0.000000

  Born effective charge tensors :

  Atom             x           y             z
   1 K     x       0.8079      0.0000      0.0000
           y       0.0000      0.8079      0.0000
           z       0.0000      0.0000      0.8079
   2 Zn    x       1.0888      0.0000      0.0000
           y       0.0000      1.0888      0.0000
           z       0.0000      0.0000      1.0888
   3 F     x      -0.6725      0.0000      0.0000
           y       0.0000     -0.6725      0.0000
           z       0.0000      0.0000     -0.5516
   4 F     x      -0.5516      0.0000      0.0000
           y       0.0000     -0.6725      0.0000
           z       0.0000      0.0000     -0.6725
   5 F     x      -0.6725      0.0000      0.0000
           y       0.0000     -0.5516      0.0000
           z       0.0000      0.0000     -0.6725

  Elastic Constant Matrix: (Units=GPa)

  Indices      1         2         3         4         5         6
       1     92.6817   15.6869   15.6869    0.0000    0.0000    0.0000
       2     15.6869   92.6817   15.6869    0.0000    0.0000    0.0000
       3     15.6869   15.6869   92.6817    0.0000    0.0000    0.0000
       4      0.0000    0.0000    0.0000   15.5209    0.0000    0.0000
       5      0.0000    0.0000    0.0000    0.0000   15.5209    0.0000
       6      0.0000    0.0000    0.0000    0.0000    0.0000   15.5209

  Elastic Compliance Matrix: (Units=1/GPa)

  Indices      1         2         3         4         5         6
       1    0.011346 -0.001642 -0.001642  0.000000  0.000000  0.000000
       2   -0.001642  0.011346 -0.001642  0.000000  0.000000  0.000000
       3   -0.001642 -0.001642  0.011346  0.000000  0.000000  0.000000
       4    0.000000  0.000000  0.000000  0.064429  0.000000  0.000000
       5    0.000000  0.000000  0.000000  0.000000  0.064429  0.000000
       6    0.000000  0.000000  0.000000  0.000000  0.000000  0.064429

  Mechanical properties :

  Convention :                    Reuss         Voigt         Hill
  Bulk  Modulus (GPa)     =      41.35181      41.35181      41.35181
  Shear Modulus (GPa)     =      20.38823      24.71149      22.54986
  Velocity S-wave (km/s)  =       2.42782       2.67286       2.55328
  Velocity P-wave (km/s)  =       4.45130       4.63471       4.54393
  Compressibility (1/GPa) =    0.02418274
  Stress axis :                     x             y             z
  Youngs Moduli (GPa)     =      88.14016      88.14016      88.14016
  Poissons Ratio (x)      =                     0.14475       0.14475
  Poissons Ratio (y)      =       0.14475                     0.14475
  Poissons Ratio (z)      =       0.14475       0.14475

  Piezoelectric Strain Matrix: (Units=C/m**2)

  Indices      1         2         3         4         5         6
       x     0.00000   0.00000   0.00000   0.00000   0.00000   0.00000
       y     0.00000   0.00000   0.00000   0.00000   0.00000   0.00000
       z     0.00000   0.00000   0.00000   0.00000   0.00000   0.00000

  Piezoelectric Stress Matrix: (Units=10**-11 C/N)

  Indices      1         2         3         4         5         6
       x     0.00000   0.00000   0.00000   0.00000   0.00000   0.00000
       y     0.00000   0.00000   0.00000   0.00000   0.00000   0.00000
       z     0.00000   0.00000   0.00000   0.00000   0.00000   0.00000

  Static dielectric constant tensor :

              x         y         z
       x     4.35393   0.00000   0.00000
       y     0.00000   4.35393   0.00000
       z     0.00000   0.00000   4.35393

  High frequency dielectric constant tensor :

              x         y         z
       x     1.51249   0.00000   0.00000
       y     0.00000   1.51249   0.00000
       z     0.00000   0.00000   1.51249

  Static refractive indices :

    1 =    2.08661      2 =    2.08661      3 =    2.08661

  High frequency refractive indices :

    1 =    1.22983      2 =    1.22983      3 =    1.22983

  Time to end of optimisation =       0.1059 seconds

  Timing analysis for GULP :

  Task / Subroutine                                          Time (Seconds)
  Calculation of reciprocal space energy and derivatives          0.0121
  Calculation of real space energy and derivatives                0.0883
  Calculation of matrix inversion                                 0.0001
  Global summation overhead                                       0.0002

  CIF file written as perov.cif

  Job Finished at 14:01.03 22nd February   2017