  Job Started  at 13:09.58 22nd February   2017

  Number of CPUs =     1

  Total number of configurations input =   1

*  Input for Configuration =   1                                               *

  Formula = K2Mn2F6

  Number of irreducible atoms/shells =       6

  Total number atoms/shells =      16

  Dimensionality = 3               :  Bulk

  Symmetry :

  Crystal family                   :  Tetragonal
  Crystal class  (Groth - 1921)    :  Ditetragonal Dipyramidal

  Space group (centrosymmetric)    :  I 4/M C M

  Patterson group                  :  I 4/m m m

  Cartesian lattice vectors (Angstroms) :

       -2.100000    2.100000    2.100000
        2.100000   -2.100000    2.100000
        2.100000    2.100000   -2.100000

  Primitive cell parameters :            Full cell parameters :

  a =   3.6373    alpha = 109.4712       a =   4.2000    alpha =  90.0000
  b =   3.6373    beta  = 109.4712       b =   4.2000    beta  =  90.0000
  c =   3.6373    gamma = 109.4712       c =   4.2000    gamma =  90.0000

  Initial volumes (Angstroms**3):

  Primitive cell =          37.044000    Full cell =          74.088000

  Temperature of configuration =  0.000     K

  Pressure of configuration =         0.000 GPa

  Fractional coordinates of asymmetric unit :

   No.  Atomic       x           y          z         Charge      Occupancy
        Label      (Frac)      (Frac)     (Frac)        (e)         (Frac)
      1 K     c    0.000000    0.500000    0.250000     1.00000    1.000000
      2 Mn    c    0.000000    0.000000    0.000000     2.30000    1.000000
      3 F     c    0.240600 *  0.740600    0.000000     0.37800    1.000000
      4 F     c    0.000000    0.000000    0.250000     0.37800    1.000000
      5 F     s    0.240600 *  0.740600    0.000000    -1.47800    1.000000
      6 F     s    0.000000    0.000000    0.250000    -1.47800    1.000000

  Constraints :

  Constraint no.      Unconstrained     Constrained    Coefficient    Offset
                         Variable         Variable
           1              Strain 1        Strain 2       1.00000      0.0000
           2                 3 x             3 y         1.00000      0.5000
           3                 5 x             5 y         1.00000      0.5000

*  General input information                                                   *

  Species output for all configurations :

  Species    Type    Atomic    Atomic    Charge       Radii (Angs)     Library
                     Number     Mass       (e)     Cova   Ionic  VDW   Symbol
    K        Core       19      39.10   1.000000   1.330  0.000  2.800
    Mn       Core       25      54.94   2.300000   1.350  0.000  2.010
    F        Core        9      19.00   0.378000   0.710  0.000  1.300
    F        Shell       9       0.00  -1.478000   0.710  0.000  1.300

  Lattice summation method               =    Ewald          (3-D)
                                         =    Parry          (2-D)
                                         =    Saunders et al (1-D)
  Accuracy factor for lattice sums       =   12.000

  Time limit = Infinity

  Maximum range for interatomic potentials =    100000.000000 Angstroms

  General interatomic potentials :

Atom  Types   Potential         A         B         C         D     Cutoffs(Ang)
  1     2                                                            Min    Max
K    c K    c Buckingham    0.219E+04 0.192      0.00      0.00     0.000 10.000
Mn   c F    s Buckingham    0.148E+04 0.266      0.00      0.00     0.000 10.000
F    s F    s Buckingham     912.     0.271      13.8      0.00     0.000 10.000
K    c F    s Buckingham    0.352E+04 0.267      0.00      0.00     0.000 10.000
F    c F    s Spring (c-s)   28.0      0.00      0.00      0.00     0.000  0.800

*  Output for configuration   1                                                *

  Components of energy :

  Interatomic potentials     =         251.00594115 eV
  Monopole - monopole (real) =         -65.14635669 eV
  Monopole - monopole (recip)=        -107.30464770 eV
  Monopole - monopole (total)=        -172.45100439 eV
  Total lattice energy :
    Primitive unit cell      =          78.55493676 eV
    Non-primitive unit cell  =         157.10987351 eV
  Total lattice energy (in kJmol-1):
    Primitive unit cell      =            7579.3506 kJ/(mole unit cells)
    Non-primitive unit cell  =           15158.7011 kJ/(mole unit cells)

  Number of variables =        4

  Maximum number of calculations  =          1000
  Maximum Hessian update interval =            10
  Maximum step size               =   1.000000000
  Maximum parameter tolerance     =   0.000010000
  Maximum function  tolerance     =   0.000010000
  Maximum gradient  tolerance     =   0.001000000
  Maximum gradient  component     =   0.010000000

  Symmetry constrained optimisation

  Symmetry used for second derivatives

  Cell parameters to be optimised using strains

  Newton-Raphson optimiser to be used

  BFGS hessian update to be used

  Start of bulk optimisation :

  ** Hessian calculated **
  ** Hessian calculated **
  ** Hessian calculated **
  ** Hessian calculated **

  **** Conditions for a minimum have not been satisfied. However ****
  **** no lower point can be found - treat results with caution  ****
  **** unless gradient norm is small (less than 0.1)             ****

  Final energy =     -99.12242627 eV
  Final Gnorm  =       0.06716496

  Components of energy :

  Interatomic potentials     =          13.75575538 eV
  Monopole - monopole (real) =         -23.95089888 eV
  Monopole - monopole (recip)=         -88.92728277 eV
  Monopole - monopole (total)=        -112.87818165 eV
  Total lattice energy :
    Primitive unit cell      =         -99.12242627 eV
    Non-primitive unit cell  =        -198.24485255 eV
  Total lattice energy (in kJmol-1):
    Primitive unit cell      =           -9563.7989 kJ/(mole unit cells)
    Non-primitive unit cell  =          -19127.5978 kJ/(mole unit cells)

  Final asymmetric unit coordinates :

   No.  Atomic        x           y           z         Radius
        Label       (Frac)      (Frac)      (Frac)       (Angs)
     1  K     c     0.000000    0.500000    0.250000    0.000000
     2  Mn    c     0.000000    0.000000    0.000000    0.000000
     3  F     c     0.249526    0.749526    0.000000    0.000000
     4  F     c     0.000000    0.000000    0.250000    0.000000
     5  F     s     0.249532    0.749532    0.000000    0.000000
     6  F     s     0.000000    0.000000    0.250000    0.000000

  Final Cartesian lattice vectors (Angstroms) :

       -2.775789    2.775789    3.922139
        2.775789   -2.775789    3.922139
        2.775789    2.775789   -3.922139

  Final cell parameters and derivatives :

       a            5.549160 Angstrom     dE/de1(xx)     0.104775 eV/strain
       b            5.549160 Angstrom     dE/de2(yy)     0.000000 eV/strain
       c            5.549160 Angstrom     dE/de3(zz)    -0.024727 eV/strain
       alpha      119.971183 Degrees      dE/de4(yz)     0.000000 eV/strain
       beta       119.971183 Degrees      dE/de5(xz)     0.000000 eV/strain
       gamma       90.049920 Degrees      dE/de6(xy)     0.000000 eV/strain

  Primitive cell volume =           120.880360 Angs**3

  Density of cell =      4.149753 g/cm**3

  Non-primitive lattice parameters :

  a    =     5.551577  b   =     5.551577  c    =     7.844278
  alpha=    90.000000  beta=    90.000000  gamma=    90.000000

  Non-primitive cell volume =           241.760720 Angs**3

  Final internal derivatives :

   No.  Atomic          a             b             c           Radius
        Label          (eV)          (eV)          (eV)        (eV/Angs)
      1 K     c       0.000000      0.000000      0.000000      0.000000
      2 Mn    c       0.000000      0.000000      0.000000      0.000000
      3 F     c       0.064897      0.000000      0.000000      0.000000
      4 F     c       0.000000      0.000000      0.000000      0.000000
      5 F     s      -0.237439      0.000000      0.000000      0.000000
      6 F     s       0.000000      0.000000      0.000000      0.000000
  Maximum abs         0.237439      0.000000      0.000000      0.000000

  Born effective charge tensors :

  Atom             x           y             z
   1 K     x       0.9679      0.0000      0.0000
           y       0.0000      0.9679      0.0000
           z       0.0000      0.0000      0.9675
   2 Mn    x       1.8796     -0.0002      0.0000
           y       0.0002      1.8796      0.0000
           z       0.0000      0.0000      1.8749
   3 F     x      -0.9758      0.0801      0.0000
           y       0.0801     -0.9758      0.0000
           z       0.0000      0.0000     -0.8955
   4 F     x      -0.8959      0.0000      0.0000
           y       0.0000     -0.8959      0.0000
           z       0.0000      0.0000     -1.0515

  Elastic Constant Matrix: (Units=GPa)

  Indices      1         2         3         4         5         6
       1    190.2861   59.5230   65.3609    0.0000    0.0000    0.0000
       2     59.5230  190.2861   65.3609    0.0000    0.0000    0.0000
       3     65.3609   65.3609  185.4637    0.0000    0.0000    0.0000
       4      0.0000    0.0000    0.0000   65.3768    0.0000    0.0000
       5      0.0000    0.0000    0.0000    0.0000   65.3768    0.0000
       6      0.0000    0.0000    0.0000    0.0000    0.0000   59.5918

  Elastic Compliance Matrix: (Units=1/GPa)

  Indices      1         2         3         4         5         6
       1    0.006278 -0.001370 -0.001730  0.000000  0.000000  0.000000
       2   -0.001370  0.006278 -0.001730  0.000000  0.000000  0.000000
       3   -0.001730 -0.001730  0.006611  0.000000  0.000000  0.000000
       4    0.000000  0.000000  0.000000  0.015296  0.000000  0.000000
       5    0.000000  0.000000  0.000000  0.000000  0.015296  0.000000
       6    0.000000  0.000000  0.000000  0.000000  0.000000  0.016781

  Mechanical properties :

  Convention :                    Reuss         Voigt         Hill
  Bulk  Modulus (GPa)     =     105.16888     105.16951     105.16919
  Shear Modulus (GPa)     =      62.99835      63.12180      63.06008
  Velocity S-wave (km/s)  =       3.89631       3.90013       3.89822
  Velocity P-wave (km/s)  =       6.75167       6.75462       6.75314
  Compressibility (1/GPa) =    0.00950852
  Stress axis :                     x             y             z
  Youngs Moduli (GPa)     =     159.29112     159.29112     151.26123
  Poissons Ratio (x)      =                     0.21817       0.26164
  Poissons Ratio (y)      =       0.21817                     0.26164
  Poissons Ratio (z)      =       0.27553       0.27553

  Piezoelectric Strain Matrix: (Units=C/m**2)

  Indices      1         2         3         4         5         6
       x     0.00000   0.00000   0.00000   0.00000   0.00000   0.00000
       y     0.00000   0.00000   0.00000   0.00000   0.00000   0.00000
       z     0.00000   0.00000   0.00000   0.00000   0.00000   0.00000

  Piezoelectric Stress Matrix: (Units=10**-11 C/N)

  Indices      1         2         3         4         5         6
       x     0.00000   0.00000   0.00000   0.00000   0.00000   0.00000
       y     0.00000   0.00000   0.00000   0.00000   0.00000   0.00000
       z     0.00000   0.00000   0.00000   0.00000   0.00000   0.00000

  Static dielectric constant tensor :

              x         y         z
       x     4.13183   0.00000   0.00000
       y     0.00000   4.13183   0.00000
       z     0.00000   0.00000   4.10986

  High frequency dielectric constant tensor :

              x         y         z
       x     1.67068   0.00000   0.00000
       y     0.00000   1.67068   0.00000
       z     0.00000   0.00000   1.66983

  Static refractive indices :

    1 =    2.02728      2 =    2.03269      3 =    2.03269

  High frequency refractive indices :

    1 =    1.29222      2 =    1.29255      3 =    1.29255

  Time to end of optimisation =       0.1729 seconds

  Timing analysis for GULP :

  Task / Subroutine                                          Time (Seconds)
  Calculation of reciprocal space energy and derivatives          0.0018
  Calculation of reciprocal space energy using symmetry           0.0066
  Calculation of real space energy and derivatives                0.0067
  Calculation of real space energy using symmetry                 0.1535
  Symmetry generation of equivalent positions                     0.0005

  CIF file written as perov.cif

  Job Finished at 13:09.58 22nd February   2017