  Job Started  at 14:00.00 22nd February   2017

  Number of CPUs =     1

  Total number of configurations input =   1

*  Input for Configuration =   1                                               *

  Formula = KZnF3

  Number of irreducible atoms/shells =       8

  Total number atoms/shells =       8

  Dimensionality = 3               :  Bulk

  Cartesian lattice vectors (Angstroms) :

        4.200000    0.000000    0.000000
        0.000000    4.200000    0.000000
        0.000000    0.000000    4.200000

  Cell parameters (Angstroms/Degrees):

  a =       4.2000    alpha =  90.0000
  b =       4.2000    beta  =  90.0000
  c =       4.2000    gamma =  90.0000

  Initial cell volume =          74.088000 Angs**3

  Temperature of configuration =  0.000     K

  Pressure of configuration =         0.000 GPa

  Fractional coordinates of asymmetric unit :

   No.  Atomic       x           y          z         Charge      Occupancy
        Label      (Frac)      (Frac)     (Frac)        (e)         (Frac)
      1 K     c    0.000000    0.000000    0.000000     1.30000    1.000000
      2 Zn    c    0.500000 *  0.500000 *  0.500000 *   1.60000    1.000000
      3 F     c    0.500000 *  0.500000 *  0.000000 *   0.37800    1.000000
      4 F     c    0.000000 *  0.500000 *  0.500000 *   0.37800    1.000000
      5 F     c    0.500000 *  0.000000 *  0.500000 *   0.37800    1.000000
      6 F     s    0.500000 *  0.500000 *  0.000000 *  -1.34467    1.000000
      7 F     s    0.000000 *  0.500000 *  0.500000 *  -1.34467    1.000000
      8 F     s    0.500000 *  0.000000 *  0.500000 *  -1.34467    1.000000

*  General input information                                                   *

  Species output for all configurations :

  Species    Type    Atomic    Atomic    Charge       Radii (Angs)     Library
                     Number     Mass       (e)     Cova   Ionic  VDW   Symbol
    K        Core       19      39.10   1.300000   1.330  0.000  2.800
    Zn       Core       30      65.39   1.600000   1.450  0.000  2.160
    F        Core        9      19.00   0.378000   0.710  0.000  1.300
    F        Shell       9       0.00  -1.344667   0.710  0.000  1.300

  Lattice summation method               =    Ewald          (3-D)
                                         =    Parry          (2-D)
                                         =    Saunders et al (1-D)
  Accuracy factor for lattice sums       =   12.000

  Time limit = Infinity

  Maximum range for interatomic potentials =    100000.000000 Angstroms

  General interatomic potentials :

Atom  Types   Potential         A         B         C         D     Cutoffs(Ang)
  1     2                                                            Min    Max
K    c K    c Buckingham    0.219E+04 0.192      0.00      0.00     0.000 10.000
Zn   c F    s Buckingham    0.148E+04 0.266      0.00      0.00     0.000 10.000
F    s F    s Buckingham     912.     0.271      40.0      0.00     0.000 10.000
K    c F    s Buckingham    0.352E+04 0.267      0.00      0.00     0.000 10.000
F    c F    s Spring (c-s)   23.2      0.00      0.00      0.00     0.000  0.800

*  Output for configuration   1                                                *

  Components of energy :

  Interatomic potentials     =           3.31142283 eV
  Monopole - monopole (real) =          -8.56321758 eV
  Monopole - monopole (recip)=         -28.00530905 eV
  Monopole - monopole (total)=         -36.56852663 eV
  Total lattice energy       =         -33.25710380 eV
  Total lattice energy       =           -3208.8021 kJ/(mole unit cells)

  Number of variables =       27

  Maximum number of calculations  =          1000
  Maximum Hessian update interval =            10
  Maximum step size               =   1.000000000
  Maximum parameter tolerance     =   0.000010000
  Maximum function  tolerance     =   0.000010000
  Maximum gradient  tolerance     =   0.001000000
  Maximum gradient  component     =   0.010000000

  Symmetry not applied to optimisation

  Cell parameters to be optimised using strains

  Newton-Raphson optimiser to be used

  BFGS hessian update to be used

  Start of bulk optimisation :

  ** Hessian calculated **
  ** Hessian calculated **
  ** Hessian calculated **
  ** Hessian calculated **

  **** Conditions for a minimum have not been satisfied. However ****
  **** no lower point can be found - treat results with caution  ****
  **** unless gradient norm is small (less than 0.1)             ****

  Final energy =     -33.34481171 eV
  Final Gnorm  =       0.00758613

  Components of energy :

  Interatomic potentials     =           4.27655736 eV
  Monopole - monopole (real) =          -8.80976071 eV
  Monopole - monopole (recip)=         -28.81160836 eV
  Monopole - monopole (total)=         -37.62136907 eV
  Total lattice energy       =         -33.34481171 eV
  Total lattice energy       =           -3217.2646 kJ/(mole unit cells)

  Final fractional coordinates of atoms :

   No.  Atomic        x           y          z          Radius
        Label       (Frac)      (Frac)     (Frac)       (Angs)
     1  K     c     0.000000    0.000000    0.000000    0.000000
     2  Zn    c     0.500000    0.500000    0.500000    0.000000
     3  F     c     0.500000    0.500000    0.000000    0.000000
     4  F     c     1.000000    0.500000    0.500000    0.000000
     5  F     c     0.500000    1.000000    0.500000    0.000000
     6  F     s     0.500000    0.500000    0.000000    0.000000
     7  F     s     1.000000    0.500000    0.500000    0.000000
     8  F     s     0.500000    1.000000    0.500000    0.000000

  Final Cartesian lattice vectors (Angstroms) :

        4.082462    0.000000    0.000000
        0.000000    4.082462    0.000000
        0.000000    0.000000    4.082462

  Final cell parameters and derivatives :

       a            4.082462 Angstrom     dE/de1(xx)    -0.118256 eV/strain
       b            4.082462 Angstrom     dE/de2(yy)    -0.118256 eV/strain
       c            4.082462 Angstrom     dE/de3(zz)    -0.118256 eV/strain
       alpha       90.000000 Degrees      dE/de4(yz)     0.000000 eV/strain
       beta        90.000000 Degrees      dE/de5(xz)     0.000000 eV/strain
       gamma       90.000000 Degrees      dE/de6(xy)     0.000000 eV/strain

  Primitive cell volume =            68.040340 Angs**3

  Density of cell =      3.941261 g/cm**3

  Non-primitive cell volume =            68.040340 Angs**3

  Final internal derivatives :

   No.  Atomic          a             b             c           Radius
        Label          (eV)          (eV)          (eV)        (eV/Angs)
      1 K     c       0.000000      0.000000      0.000000      0.000000
      2 Zn    c       0.000000      0.000000      0.000000      0.000000
      3 F     c       0.000000      0.000000      0.000000      0.000000
      4 F     c       0.000000      0.000000      0.000000      0.000000
      5 F     c       0.000000      0.000000      0.000000      0.000000
      6 F     s       0.000000      0.000000      0.000000      0.000000
      7 F     s       0.000000      0.000000      0.000000      0.000000
      8 F     s       0.000000      0.000000      0.000000      0.000000
  Maximum abs         0.000000      0.000000      0.000000      0.000000

  Born effective charge tensors :

  Atom             x           y             z
   1 K     x       1.3845      0.0000      0.0000
           y       0.0000      1.3845      0.0000
           z       0.0000      0.0000      1.3845
   2 Zn    x       1.1171      0.0000      0.0000
           y       0.0000      1.1171      0.0000
           z       0.0000      0.0000      1.1171
   3 F     x      -0.8966      0.0000      0.0000
           y       0.0000     -0.8966      0.0000
           z       0.0000      0.0000     -0.7084
   4 F     x      -0.7084      0.0000      0.0000
           y       0.0000     -0.8966      0.0000
           z       0.0000      0.0000     -0.8966
   5 F     x      -0.8966      0.0000      0.0000
           y       0.0000     -0.7084      0.0000
           z       0.0000      0.0000     -0.8966

  Elastic Constant Matrix: (Units=GPa)

  Indices      1         2         3         4         5         6
       1    143.3415   29.3646   29.3646    0.0000    0.0000    0.0000
       2     29.3646  143.3415   29.3646    0.0000    0.0000    0.0000
       3     29.3646   29.3646  143.3415    0.0000    0.0000    0.0000
       4      0.0000    0.0000    0.0000   29.0861    0.0000    0.0000
       5      0.0000    0.0000    0.0000    0.0000   29.0861    0.0000
       6      0.0000    0.0000    0.0000    0.0000    0.0000   29.0861

  Elastic Compliance Matrix: (Units=1/GPa)

  Indices      1         2         3         4         5         6
       1    0.007499 -0.001275 -0.001275  0.000000  0.000000  0.000000
       2   -0.001275  0.007499 -0.001275  0.000000  0.000000  0.000000
       3   -0.001275 -0.001275  0.007499  0.000000  0.000000  0.000000
       4    0.000000  0.000000  0.000000  0.034381  0.000000  0.000000
       5    0.000000  0.000000  0.000000  0.000000  0.034381  0.000000
       6    0.000000  0.000000  0.000000  0.000000  0.000000  0.034381

  Mechanical properties :

  Convention :                    Reuss         Voigt         Hill
  Bulk  Modulus (GPa)     =      67.35690      67.35690      67.35690
  Shear Modulus (GPa)     =      36.16983      40.24706      38.20844
  Velocity S-wave (km/s)  =       3.02939       3.19558       3.11359
  Velocity P-wave (km/s)  =       5.41539       5.54128       5.47870
  Compressibility (1/GPa) =    0.01484629
  Stress axis :                     x             y             z
  Youngs Moduli (GPa)     =     133.35598     133.35598     133.35598
  Poissons Ratio (x)      =                     0.17003       0.17003
  Poissons Ratio (y)      =       0.17003                     0.17003
  Poissons Ratio (z)      =       0.17003       0.17003

  Piezoelectric Strain Matrix: (Units=C/m**2)

  Indices      1         2         3         4         5         6
       x     0.00000   0.00000   0.00000   0.00000   0.00000   0.00000
       y     0.00000   0.00000   0.00000   0.00000   0.00000   0.00000
       z     0.00000   0.00000   0.00000   0.00000   0.00000   0.00000

  Piezoelectric Stress Matrix: (Units=10**-11 C/N)

  Indices      1         2         3         4         5         6
       x     0.00000   0.00000   0.00000   0.00000   0.00000   0.00000
       y     0.00000   0.00000   0.00000   0.00000   0.00000   0.00000
       z     0.00000   0.00000   0.00000   0.00000   0.00000   0.00000

  Static dielectric constant tensor :

              x         y         z
       x     9.82425   0.00000   0.00000
       y     0.00000   9.82425   0.00000
       z     0.00000   0.00000   9.82425

  High frequency dielectric constant tensor :

              x         y         z
       x     1.59489   0.00000   0.00000
       y     0.00000   1.59489   0.00000
       z     0.00000   0.00000   1.59489

  Static refractive indices :

    1 =    3.13437      2 =    3.13437      3 =    3.13437

  High frequency refractive indices :

    1 =    1.26289      2 =    1.26289      3 =    1.26289

  Time to end of optimisation =       0.0229 seconds

  Timing analysis for GULP :

  Task / Subroutine                                          Time (Seconds)
  Calculation of reciprocal space energy and derivatives          0.0025
  Calculation of real space energy and derivatives                0.0171

  CIF file written as perov.cif

  Job Finished at 14:00.00 22nd February   2017