  Job Started  at 14:00.00 22nd February   2017

  Number of CPUs =     1

  Total number of configurations input =   1

*  Input for Configuration =   1                                               *

  Formula = KZnF3

  Number of irreducible atoms/shells =       8

  Total number atoms/shells =       8

  Dimensionality = 3               :  Bulk

  Cartesian lattice vectors (Angstroms) :

        4.200000    0.000000    0.000000
        0.000000    4.200000    0.000000
        0.000000    0.000000    4.200000

  Cell parameters (Angstroms/Degrees):

  a =       4.2000    alpha =  90.0000
  b =       4.2000    beta  =  90.0000
  c =       4.2000    gamma =  90.0000

  Initial cell volume =          74.088000 Angs**3

  Temperature of configuration =  0.000     K

  Pressure of configuration =         0.000 GPa

  Fractional coordinates of asymmetric unit :

   No.  Atomic       x           y          z         Charge      Occupancy
        Label      (Frac)      (Frac)     (Frac)        (e)         (Frac)
      1 K     c    0.000000    0.000000    0.000000     1.50000    1.000000
      2 Zn    c    0.500000 *  0.500000 *  0.500000 *   1.90000    1.000000
      3 F     c    0.500000 *  0.500000 *  0.000000 *   0.37800    1.000000
      4 F     c    0.000000 *  0.500000 *  0.500000 *   0.37800    1.000000
      5 F     c    0.500000 *  0.000000 *  0.500000 *   0.37800    1.000000
      6 F     s    0.500000 *  0.500000 *  0.000000 *  -1.51133    1.000000
      7 F     s    0.000000 *  0.500000 *  0.500000 *  -1.51133    1.000000
      8 F     s    0.500000 *  0.000000 *  0.500000 *  -1.51133    1.000000

*  General input information                                                   *

  Species output for all configurations :

  Species    Type    Atomic    Atomic    Charge       Radii (Angs)     Library
                     Number     Mass       (e)     Cova   Ionic  VDW   Symbol
    K        Core       19      39.10   1.500000   1.330  0.000  2.800
    Zn       Core       30      65.39   1.900000   1.450  0.000  2.160
    F        Core        9      19.00   0.378000   0.710  0.000  1.300
    F        Shell       9       0.00  -1.511333   0.710  0.000  1.300

  Lattice summation method               =    Ewald          (3-D)
                                         =    Parry          (2-D)
                                         =    Saunders et al (1-D)
  Accuracy factor for lattice sums       =   12.000

  Time limit = Infinity

  Maximum range for interatomic potentials =    100000.000000 Angstroms

  General interatomic potentials :

Atom  Types   Potential         A         B         C         D     Cutoffs(Ang)
  1     2                                                            Min    Max
K    c K    c Buckingham    0.219E+04 0.192      0.00      0.00     0.000 10.000
Zn   c F    s Buckingham    0.148E+04 0.266      0.00      0.00     0.000 10.000
F    s F    s Buckingham     912.     0.271      40.0      0.00     0.000 10.000
K    c F    s Buckingham    0.352E+04 0.267      0.00      0.00     0.000 10.000
F    c F    s Spring (c-s)   29.3      0.00      0.00      0.00     0.000  0.800

*  Output for configuration   1                                                *

  Components of energy :

  Interatomic potentials     =           3.31142283 eV
  Monopole - monopole (real) =         -11.87155444 eV
  Monopole - monopole (recip)=         -38.59408824 eV
  Monopole - monopole (total)=         -50.46564268 eV
  Total lattice energy       =         -47.15421985 eV
  Total lattice energy       =           -4549.6614 kJ/(mole unit cells)

  Number of variables =       27

  Maximum number of calculations  =          1000
  Maximum Hessian update interval =            10
  Maximum step size               =   1.000000000
  Maximum parameter tolerance     =   0.000010000
  Maximum function  tolerance     =   0.000010000
  Maximum gradient  tolerance     =   0.001000000
  Maximum gradient  component     =   0.010000000

  Symmetry not applied to optimisation

  Cell parameters to be optimised using strains

  Newton-Raphson optimiser to be used

  BFGS hessian update to be used

  Start of bulk optimisation :

  ** Hessian calculated **

  **** Optimisation achieved ****

  Final energy =     -47.99594169 eV
  Final Gnorm  =       0.00000054

  Components of energy :

  Interatomic potentials     =           6.45064287 eV
  Monopole - monopole (real) =         -12.80803253 eV
  Monopole - monopole (recip)=         -41.63855204 eV
  Monopole - monopole (total)=         -54.44658457 eV
  Total lattice energy       =         -47.99594169 eV
  Total lattice energy       =           -4630.8747 kJ/(mole unit cells)

  Final fractional coordinates of atoms :

   No.  Atomic        x           y          z          Radius
        Label       (Frac)      (Frac)     (Frac)       (Angs)
     1  K     c     0.000000    0.000000    0.000000    0.000000
     2  Zn    c     0.500000    0.500000    0.500000    0.000000
     3  F     c     0.500000    0.500000    0.000000    0.000000
     4  F     c     0.000000    0.500000    0.500000    0.000000
     5  F     c     0.500000    0.000000    0.500000    0.000000
     6  F     s     0.500000    0.500000    0.000000    0.000000
     7  F     s     0.000000    0.500000    0.500000    0.000000
     8  F     s     0.500000    0.000000    0.500000    0.000000

  Final Cartesian lattice vectors (Angstroms) :

        3.892911    0.000000    0.000000
        0.000000    3.892911    0.000000
        0.000000    0.000000    3.892911

  Final cell parameters and derivatives :

       a            3.892911 Angstrom     dE/de1(xx)    -0.000008 eV/strain
       b            3.892911 Angstrom     dE/de2(yy)    -0.000008 eV/strain
       c            3.892911 Angstrom     dE/de3(zz)    -0.000008 eV/strain
       alpha       90.000000 Degrees      dE/de4(yz)     0.000000 eV/strain
       beta        90.000000 Degrees      dE/de5(xz)     0.000000 eV/strain
       gamma       90.000000 Degrees      dE/de6(xy)     0.000000 eV/strain

  Primitive cell volume =            58.996109 Angs**3

  Density of cell =      4.545464 g/cm**3

  Non-primitive cell volume =            58.996109 Angs**3

  Final internal derivatives :

   No.  Atomic          a             b             c           Radius
        Label          (eV)          (eV)          (eV)        (eV/Angs)
      1 K     c       0.000000      0.000000      0.000000      0.000000
      2 Zn    c       0.000000      0.000000      0.000000      0.000000
      3 F     c       0.000000      0.000000      0.000000      0.000000
      4 F     c       0.000000      0.000000      0.000000      0.000000
      5 F     c       0.000000      0.000000      0.000000      0.000000
      6 F     s       0.000000      0.000000      0.000000      0.000000
      7 F     s       0.000000      0.000000      0.000000      0.000000
      8 F     s       0.000000      0.000000      0.000000      0.000000
  Maximum abs         0.000000      0.000000      0.000000      0.000000

  Born effective charge tensors :

  Atom             x           y             z
   1 K     x       1.5840      0.0000      0.0000
           y       0.0000      1.5840      0.0000
           z       0.0000      0.0000      1.5840
   2 Zn    x       1.3334      0.0000      0.0000
           y       0.0000      1.3334      0.0000
           z       0.0000      0.0000      1.3334
   3 F     x      -1.0239      0.0000      0.0000
           y       0.0000     -1.0239      0.0000
           z       0.0000      0.0000     -0.8697
   4 F     x      -0.8697      0.0000      0.0000
           y       0.0000     -1.0239      0.0000
           z       0.0000      0.0000     -1.0239
   5 F     x      -1.0239      0.0000      0.0000
           y       0.0000     -0.8697      0.0000
           z       0.0000      0.0000     -1.0239

  Elastic Constant Matrix: (Units=GPa)

  Indices      1         2         3         4         5         6
       1    210.0053   52.8293   52.8293    0.0000    0.0000    0.0000
       2     52.8293  210.0053   52.8293    0.0000    0.0000    0.0000
       3     52.8293   52.8293  210.0053    0.0000    0.0000    0.0000
       4      0.0000    0.0000    0.0000   52.8293    0.0000    0.0000
       5      0.0000    0.0000    0.0000    0.0000   52.8293    0.0000
       6      0.0000    0.0000    0.0000    0.0000    0.0000   52.8293

  Elastic Compliance Matrix: (Units=1/GPa)

  Indices      1         2         3         4         5         6
       1    0.005298 -0.001065 -0.001065  0.000000  0.000000  0.000000
       2   -0.001065  0.005298 -0.001065  0.000000  0.000000  0.000000
       3   -0.001065 -0.001065  0.005298  0.000000  0.000000  0.000000
       4    0.000000  0.000000  0.000000  0.018929  0.000000  0.000000
       5    0.000000  0.000000  0.000000  0.000000  0.018929  0.000000
       6    0.000000  0.000000  0.000000  0.000000  0.000000  0.018929

  Mechanical properties :

  Convention :                    Reuss         Voigt         Hill
  Bulk  Modulus (GPa)     =     105.22131     105.22131     105.22131
  Shear Modulus (GPa)     =      60.80073      63.13277      61.96675
  Velocity S-wave (km/s)  =       3.65734       3.72682       3.69224
  Velocity P-wave (km/s)  =       6.40183       6.45504       6.42849
  Compressibility (1/GPa) =    0.00950378
  Stress axis :                     x             y             z
  Youngs Moduli (GPa)     =     188.76806     188.76806     188.76806
  Poissons Ratio (x)      =                     0.20100       0.20100
  Poissons Ratio (y)      =       0.20100                     0.20100
  Poissons Ratio (z)      =       0.20100       0.20100

  Piezoelectric Strain Matrix: (Units=C/m**2)

  Indices      1         2         3         4         5         6
       x     0.00000   0.00000   0.00000   0.00000   0.00000   0.00000
       y     0.00000   0.00000   0.00000   0.00000   0.00000   0.00000
       z     0.00000   0.00000   0.00000   0.00000   0.00000   0.00000

  Piezoelectric Stress Matrix: (Units=10**-11 C/N)

  Indices      1         2         3         4         5         6
       x     0.00000   0.00000   0.00000   0.00000   0.00000   0.00000
       y     0.00000   0.00000   0.00000   0.00000   0.00000   0.00000
       z     0.00000   0.00000   0.00000   0.00000   0.00000   0.00000

  Static dielectric constant tensor :

              x         y         z
       x     8.03586   0.00000   0.00000
       y     0.00000   8.03586   0.00000
       z     0.00000   0.00000   8.03586

  High frequency dielectric constant tensor :

              x         y         z
       x     1.68170   0.00000   0.00000
       y     0.00000   1.68170   0.00000
       z     0.00000   0.00000   1.68170

  Static refractive indices :

    1 =    2.83476      2 =    2.83476      3 =    2.83476

  High frequency refractive indices :

    1 =    1.29681      2 =    1.29681      3 =    1.29681

  Time to end of optimisation =       0.0118 seconds

  Timing analysis for GULP :

  Task / Subroutine                                          Time (Seconds)
  Calculation of reciprocal space energy and derivatives          0.0011
  Calculation of real space energy and derivatives                0.0078

  CIF file written as perov.cif

  Job Finished at 14:00.00 22nd February   2017